 Entering Gaussian System, Link 0=/opt/gaussian/g16.a03/g16/g16
 Input=HCl_MO8HX_def2tzvp.gjf
 Output=Job.24053.log
 Initial command:
 /opt/gaussian/g16.a03/g16/l1.exe "/scr0//sd/24053/Gau-7605.inp" -scrdir="/scr0//sd/24053/"
 Default is to use a total of  24 processors:
                               24 via shared-memory
                                1 via Linda
 Entering Link 1 = /opt/gaussian/g16.a03/g16/l1.exe PID=      7606.
  
 Copyright (c) 1988,1990,1992,1993,1995,1998,2003,2009,2016,
            Gaussian, Inc.  All Rights Reserved.
  
 This is part of the Gaussian(R) 16 program.  It is based on
 the Gaussian(R) 09 system (copyright 2009, Gaussian, Inc.),
 the Gaussian(R) 03 system (copyright 2003, Gaussian, Inc.),
 the Gaussian(R) 98 system (copyright 1998, Gaussian, Inc.),
 the Gaussian(R) 94 system (copyright 1995, Gaussian, Inc.),
 the Gaussian 92(TM) system (copyright 1992, Gaussian, Inc.),
 the Gaussian 90(TM) system (copyright 1990, Gaussian, Inc.),
 the Gaussian 88(TM) system (copyright 1988, Gaussian, Inc.),
 the Gaussian 86(TM) system (copyright 1986, Carnegie Mellon
 University), and the Gaussian 82(TM) system (copyright 1983,
 Carnegie Mellon University). Gaussian is a federally registered
 trademark of Gaussian, Inc.
  
 This software contains proprietary and confidential information,
 including trade secrets, belonging to Gaussian, Inc.
  
 This software is provided under written license and may be
 used, copied, transmitted, or stored only in accord with that
 written license.
  
 The following legend is applicable only to US Government
 contracts under FAR:
  
                    RESTRICTED RIGHTS LEGEND
  
 Use, reproduction and disclosure by the US Government is
 subject to restrictions as set forth in subparagraphs (a)
 and (c) of the Commercial Computer Software - Restricted
 Rights clause in FAR 52.227-19.
  
 Gaussian, Inc.
 340 Quinnipiac St., Bldg. 40, Wallingford CT 06492
  
  
 ---------------------------------------------------------------
 Warning -- This program may not be used in any manner that
 competes with the business of Gaussian, Inc. or will provide
 assistance to any competitor of Gaussian, Inc.  The licensee
 of this program is prohibited from giving any competitor of
 Gaussian, Inc. access to this program.  By using this program,
 the user acknowledges that Gaussian, Inc. is engaged in the
 business of creating and licensing software in the field of
 computational chemistry and represents and warrants to the
 licensee that it is not a competitor of Gaussian, Inc. and that
 it will not use this program in any manner prohibited above.
 ---------------------------------------------------------------
  

 Cite this work as:
 Gaussian 16, Revision A.03,
 M. J. Frisch, G. W. Trucks, H. B. Schlegel, G. E. Scuseria, 
 M. A. Robb, J. R. Cheeseman, G. Scalmani, V. Barone, 
 G. A. Petersson, H. Nakatsuji, X. Li, M. Caricato, A. V. Marenich, 
 J. Bloino, B. G. Janesko, R. Gomperts, B. Mennucci, H. P. Hratchian, 
 J. V. Ortiz, A. F. Izmaylov, J. L. Sonnenberg, D. Williams-Young, 
 F. Ding, F. Lipparini, F. Egidi, J. Goings, B. Peng, A. Petrone, 
 T. Henderson, D. Ranasinghe, V. G. Zakrzewski, J. Gao, N. Rega, 
 G. Zheng, W. Liang, M. Hada, M. Ehara, K. Toyota, R. Fukuda, 
 J. Hasegawa, M. Ishida, T. Nakajima, Y. Honda, O. Kitao, H. Nakai, 
 T. Vreven, K. Throssell, J. A. Montgomery, Jr., J. E. Peralta, 
 F. Ogliaro, M. J. Bearpark, J. J. Heyd, E. N. Brothers, K. N. Kudin, 
 V. N. Staroverov, T. A. Keith, R. Kobayashi, J. Normand, 
 K. Raghavachari, A. P. Rendell, J. C. Burant, S. S. Iyengar, 
 J. Tomasi, M. Cossi, J. M. Millam, M. Klene, C. Adamo, R. Cammi, 
 J. W. Ochterski, R. L. Martin, K. Morokuma, O. Farkas, 
 J. B. Foresman, and D. J. Fox, Gaussian, Inc., Wallingford CT, 2016.
 
 ******************************************
 Gaussian 16:  ES64L-G16RevA.03 25-Dec-2016
                23-Dec-2025 
 ******************************************
 %NProcLinda=1
 Will use up to    1 processors via Linda.
 %NProcShared=24
 Will use up to   24 processors via shared memory.
 %mem=50GB
 %chk=HCl_M08HX_def2tzvp.chk
 Default route: MaxDisk=1200GB
 ----------------------------------------------------------------------
 # M08HX/def2tzvp SCF=Tight opt=(tight,maxcycles=300) freq=(raman,hpmod
 es) nosymm int=finegrid density pop=(full,bonding) iop(6/80=1)
 ----------------------------------------------------------------------
 1/6=300,7=10,18=20,19=15,26=3,38=1/1,3;
 2/9=110,12=2,15=1,17=6,18=5,40=1/2;
 3/5=44,7=101,11=2,25=1,30=1,71=1,74=-74,75=-4/1,2,3;
 4//1;
 5/5=2,32=2,38=5/2;
 6/7=3,22=-1,27=20,28=1,80=1/1;
 7/30=1/1,2,3,16;
 1/6=300,7=10,18=20,19=15,26=3/3(2);
 2/9=110,15=1/2;
 99//99;
 2/9=110,15=1/2;
 3/5=44,7=101,11=2,25=1,30=1,71=1,74=-74,75=-4/1,2,3;
 4/5=5,16=3,69=1/1;
 5/5=2,32=2,38=5/2;
 7/30=1/1,2,3,16;
 1/6=300,7=10,18=20,19=15,26=3/3(-5);
 2/9=110,15=1/2;
 6/7=3,19=2,22=-1,27=20,28=1,80=1/1;
 99/9=1/99;
 ------------------
 HCl M08HX_def2tzvp
 ------------------
 Symbolic Z-matrix:
 Charge =  0 Multiplicity = 1
 Cl                    0.04098   0.        0. 
 H                    -1.24098   0.        0. 
 

 GradGradGradGradGradGradGradGradGradGradGradGradGradGradGradGradGradGrad
 Berny optimization.
 Initialization pass.
                           ----------------------------
                           !    Initial Parameters    !
                           ! (Angstroms and Degrees)  !
 --------------------------                            --------------------------
 ! Name  Definition              Value          Derivative Info.                !
 --------------------------------------------------------------------------------
 ! R1    R(1,2)                  1.282          estimate D2E/DX2                !
 --------------------------------------------------------------------------------
 Trust Radius=3.00D-01 FncErr=1.00D-07 GrdErr=1.00D-06 EigMax=2.50D+02 EigMin=1.00D-04
 Number of steps in this run=    100 maximum allowed number of steps=    100.
 GradGradGradGradGradGradGradGradGradGradGradGradGradGradGradGradGradGrad

                          Input orientation:                          
 ---------------------------------------------------------------------
 Center     Atomic      Atomic             Coordinates (Angstroms)
 Number     Number       Type             X           Y           Z
 ---------------------------------------------------------------------
      1         17           0        0.040977    0.000000    0.000000
      2          1           0       -1.240977    0.000000    0.000000
 ---------------------------------------------------------------------
 Symmetry turned off by external request.
 Stoichiometry    ClH
 Framework group  C*V[C*(HCl)]
 Deg. of freedom     1
 Full point group                 C*V     NOp   4
 Rotational constants (GHZ):           0.0000000         313.9256811         313.9256811
 Standard basis: def2TZVP (5D, 7F)
    43 basis functions,    77 primitive gaussians,    48 cartesian basis functions
     9 alpha electrons        9 beta electrons
       nuclear repulsion energy         7.0174222988 Hartrees.
 NAtoms=    2 NActive=    2 NUniq=    2 SFac= 1.00D+00 NAtFMM=   60 NAOKFM=F Big=F
 Integral buffers will be    131072 words long.
 Raffenetti 2 integral format.
 Two-electron integral symmetry is turned off.
 One-electron integrals computed using PRISM.
   1 Symmetry operations used in ECPInt.
 ECPInt:  NShTT=     153 NPrTT=     600 LenC2=     154 LenP2D=     587.
 LDataN:  DoStor=T MaxTD1= 6 Len=  172
 NBasis=    43 RedAO= T EigKep=  1.86D-02  NBF=    43
 NBsUse=    43 1.00D-06 EigRej= -1.00D+00 NBFU=    43
 ExpMin= 1.03D-01 ExpMax= 6.95D+04 ExpMxC= 2.37D+03 IAcc=2 IRadAn=         4 AccDes= 0.00D+00
 Harris functional with IExCor= 1009 and IRadAn=       4 diagonalized for initial guess.
 HarFok:  IExCor= 1009 AccDes= 0.00D+00 IRadAn=         4 IDoV= 1 UseB2=F ITyADJ=14
 ICtDFT=  3500011 ScaDFX=  1.000000  1.000000  1.000000  1.000000
 FoFCou: FMM=F IPFlag=           0 FMFlag=      100000 FMFlg1=           0
         NFxFlg=           0 DoJE=T BraDBF=F KetDBF=T FulRan=T
         wScrn=  0.000000 ICntrl=       500 IOpCl=  0 I1Cent=   200000004 NGrid=           0
         NMat0=    1 NMatS0=      1 NMatT0=    0 NMatD0=    1 NMtDS0=    0 NMtDT0=    0
 Symmetry not used in FoFCou.
 Keep R1 ints in memory in canonical form, NReq=21316819.
 Requested convergence on RMS density matrix=1.00D-08 within 128 cycles.
 Requested convergence on MAX density matrix=1.00D-06.
 Requested convergence on             energy=1.00D-06.
 No special actions if energy rises.
 Integral accuracy reduced to 1.0D-05 until final iterations.
 Initial convergence to 1.0D-05 achieved.  Increase integral accuracy.
 SCF Done:  E(RM08HX) =  -460.800344224     A.U. after   13 cycles
            NFock= 13  Conv=0.37D-08     -V/T= 2.0010

 **********************************************************************

            Population analysis using the SCF density.

 **********************************************************************

 Alpha  occ. eigenvalues -- -102.61830  -9.77320  -7.52138  -7.51615  -7.51615
 Alpha  occ. eigenvalues --   -0.93800  -0.53735  -0.39871  -0.39871
 Alpha virt. eigenvalues --    0.02883   0.20368   0.37981   0.37981   0.38591
 Alpha virt. eigenvalues --    0.43870   0.43870   0.47855   0.47886   0.66163
 Alpha virt. eigenvalues --    0.77710   1.51139   1.51139   1.72542   1.79268
 Alpha virt. eigenvalues --    1.79268   1.79462   1.79480   1.94112   2.11415
 Alpha virt. eigenvalues --    2.11481   2.14174   2.14174   2.20116   2.21133
 Alpha virt. eigenvalues --    2.21133   2.49672   2.49672   2.52077   3.29200
 Alpha virt. eigenvalues --   10.74866  10.74866  10.82508  24.58482
     Molecular Orbital Coefficients:
                           1         2         3         4         5
                           O         O         O         O         O
     Eigenvalues --  -102.61830  -9.77320  -7.52138  -7.51615  -7.51615
   1 1   Cl 1S          1.00045  -0.29494  -0.00137   0.00000   0.00000
   2        2S         -0.03426  -0.21220  -0.00121   0.00000   0.00000
   3        3S         -0.01182   0.83569   0.00408  -0.00000  -0.00000
   4        4S          0.00389   0.02732  -0.00060   0.00000  -0.00000
   5        5S         -0.00166  -0.00796   0.00057  -0.00000   0.00000
   6        6PX        -0.00006  -0.00295   0.71088   0.00000  -0.00000
   7        6PY        -0.00000  -0.00000   0.00000  -0.10776   0.70371
   8        6PZ        -0.00000   0.00000  -0.00000   0.70371   0.10776
   9        7PX        -0.00005  -0.00212   0.34228   0.00000  -0.00000
  10        7PY         0.00000   0.00000   0.00000  -0.05181   0.33833
  11        7PZ         0.00000  -0.00000  -0.00000   0.33833   0.05181
  12        8PX         0.00035   0.00047   0.07454   0.00000  -0.00000
  13        8PY        -0.00000  -0.00000   0.00000  -0.01088   0.07108
  14        8PZ        -0.00000   0.00000  -0.00000   0.07108   0.01088
  15        9PX        -0.00097  -0.00308  -0.01364   0.00000   0.00000
  16        9PY        -0.00000   0.00000  -0.00000   0.00169  -0.01101
  17        9PZ         0.00000  -0.00000   0.00000  -0.01101  -0.00169
  18       10PX         0.00039   0.00182   0.00385   0.00000  -0.00000
  19       10PY         0.00000  -0.00000   0.00000  -0.00052   0.00339
  20       10PZ        -0.00000   0.00000  -0.00000   0.00339   0.00052
  21       11D 0       -0.00004  -0.00056   0.00043  -0.00000   0.00000
  22       11D+1       -0.00000  -0.00000   0.00000  -0.00090  -0.00014
  23       11D-1        0.00000  -0.00000  -0.00000   0.00000  -0.00000
  24       11D+2        0.00006   0.00097  -0.00074  -0.00000   0.00000
  25       11D-2        0.00000   0.00000  -0.00000   0.00014  -0.00090
  26       12D 0       -0.00018  -0.00028  -0.00073   0.00000  -0.00000
  27       12D+1        0.00000   0.00000  -0.00000   0.00057   0.00009
  28       12D-1       -0.00000   0.00000  -0.00000  -0.00000   0.00000
  29       12D+2        0.00031   0.00048   0.00127  -0.00000   0.00000
  30       12D-2        0.00000   0.00000  -0.00000  -0.00009   0.00057
  31       13F 0        0.00000   0.00000  -0.00000  -0.00002  -0.00000
  32       13F+1        0.00014   0.00048   0.00015  -0.00000   0.00000
  33       13F-1        0.00000   0.00000  -0.00000   0.00000  -0.00001
  34       13F+2       -0.00000  -0.00000   0.00000   0.00004   0.00001
  35       13F-2        0.00000   0.00000  -0.00000  -0.00000  -0.00000
  36       13F+3       -0.00018  -0.00062  -0.00019   0.00000   0.00000
  37       13F-3       -0.00000  -0.00000   0.00000  -0.00001   0.00004
  38 2   H  1S          0.00001   0.00018  -0.00080  -0.00000   0.00000
  39        2S         -0.00093  -0.00265  -0.00269   0.00000  -0.00000
  40        3S          0.00078   0.00318   0.00175   0.00000  -0.00000
  41        4PX        -0.00061  -0.00192  -0.00083   0.00000  -0.00000
  42        4PY        -0.00000   0.00000  -0.00000  -0.00005   0.00032
  43        4PZ        -0.00000   0.00000  -0.00000   0.00032   0.00005
                           6         7         8         9        10
                           O         O         O         O         V
     Eigenvalues --    -0.93800  -0.53735  -0.39871  -0.39871   0.02883
   1 1   Cl 1S          0.08592   0.02644  -0.00000  -0.00000  -0.02319
   2        2S          0.07191   0.02302   0.00000  -0.00000  -0.02437
   3        3S         -0.48637  -0.15420   0.00000   0.00000   0.13573
   4        4S          0.65173   0.20991  -0.00000  -0.00000  -0.09102
   5        5S          0.44594   0.24630   0.00000   0.00000  -0.94096
   6        6PX         0.02717  -0.16895   0.00000   0.00000  -0.09459
   7        6PY         0.00000   0.00000   0.02942  -0.20483  -0.00000
   8        6PZ         0.00000   0.00000  -0.20483  -0.02942  -0.00000
   9        7PX         0.01423  -0.08265   0.00000   0.00000  -0.04942
  10        7PY        -0.00000  -0.00000   0.01418  -0.09874  -0.00000
  11        7PZ        -0.00000  -0.00000  -0.09874  -0.01418  -0.00000
  12        8PX        -0.03164   0.20850  -0.00000  -0.00000   0.14292
  13        8PY         0.00000   0.00000  -0.03738   0.26027   0.00000
  14        8PZ         0.00000   0.00000   0.26027   0.03738   0.00000
  15        9PX        -0.05906   0.41773   0.00000   0.00000   0.20781
  16        9PY         0.00000  -0.00000  -0.07682   0.53484  -0.00000
  17        9PZ        -0.00000  -0.00000   0.53484   0.07682   0.00000
  18       10PX        -0.01523   0.19028  -0.00000  -0.00000   0.76615
  19       10PY         0.00000  -0.00000  -0.05219   0.36339   0.00000
  20       10PZ         0.00000  -0.00000   0.36339   0.05219  -0.00000
  21       11D 0       -0.00956   0.02247   0.00000   0.00000  -0.02342
  22       11D+1        0.00000   0.00000  -0.00546  -0.00078  -0.00000
  23       11D-1       -0.00000  -0.00000  -0.00000   0.00000  -0.00000
  24       11D+2        0.01656  -0.03892   0.00000  -0.00000   0.04057
  25       11D-2       -0.00000   0.00000   0.00078  -0.00546   0.00000
  26       12D 0       -0.00815   0.01915  -0.00000  -0.00000  -0.01998
  27       12D+1       -0.00000  -0.00000  -0.02010  -0.00289   0.00000
  28       12D-1       -0.00000  -0.00000   0.00000  -0.00000   0.00000
  29       12D+2        0.01411  -0.03316  -0.00000   0.00000   0.03460
  30       12D-2       -0.00000   0.00000   0.00289  -0.02010  -0.00000
  31       13F 0        0.00000  -0.00000  -0.00481  -0.00069   0.00000
  32       13F+1        0.00477  -0.00870   0.00000   0.00000  -0.00036
  33       13F-1       -0.00000   0.00000   0.00030  -0.00206   0.00000
  34       13F+2       -0.00000  -0.00000   0.00633   0.00091   0.00000
  35       13F-2       -0.00000  -0.00000  -0.00000   0.00000  -0.00000
  36       13F+3       -0.00616   0.01123   0.00000   0.00000   0.00047
  37       13F-3        0.00000   0.00000  -0.00110   0.00768  -0.00000
  38 2   H  1S          0.08966  -0.15689   0.00000  -0.00000   0.10263
  39        2S          0.09472  -0.25661  -0.00000   0.00000   0.12031
  40        3S          0.00636  -0.06028  -0.00000  -0.00000   1.54748
  41        4PX         0.01608  -0.01688  -0.00000  -0.00000  -0.01534
  42        4PY        -0.00000   0.00000  -0.00263   0.01830  -0.00000
  43        4PZ         0.00000   0.00000   0.01830   0.00263   0.00000
                          11        12        13        14        15
                           V         V         V         V         V
     Eigenvalues --     0.20368   0.37981   0.37981   0.38591   0.43870
   1 1   Cl 1S         -0.00404  -0.00000   0.00000  -0.02020  -0.00000
   2        2S         -0.00358  -0.00000   0.00000  -0.01331  -0.00000
   3        3S          0.02404   0.00000  -0.00000   0.12876   0.00000
   4        4S          0.02209  -0.00000   0.00000  -0.31776  -0.00000
   5        5S         -0.06163   0.00000   0.00000  -0.12800   0.00000
   6        6PX        -0.03849   0.00000  -0.00000   0.16228   0.00000
   7        6PY         0.00000   0.04835   0.15159   0.00000   0.00041
   8        6PZ         0.00000   0.15159  -0.04835  -0.00000   0.00061
   9        7PX        -0.01548   0.00000  -0.00000   0.03123  -0.00000
  10        7PY        -0.00000   0.00925   0.02899   0.00000  -0.00248
  11        7PZ        -0.00000   0.02899  -0.00925   0.00000  -0.00371
  12        8PX         0.03442   0.00000  -0.00000  -0.03792   0.00000
  13        8PY         0.00000  -0.01211  -0.03797  -0.00000   0.00998
  14        8PZ         0.00000  -0.03797   0.01211  -0.00000   0.01491
  15        9PX         0.15405  -0.00000   0.00000  -1.18279  -0.00000
  16        9PY        -0.00000  -0.34747  -1.08943  -0.00000  -0.03272
  17        9PZ        -0.00000  -1.08943   0.34747   0.00000  -0.04890
  18       10PX         0.49744   0.00000  -0.00000   1.64248   0.00000
  19       10PY         0.00000   0.41613   1.30471   0.00000   0.06421
  20       10PZ         0.00000   1.30471  -0.41613  -0.00000   0.09598
  21       11D 0       -0.07672   0.00000   0.00000   0.00447  -0.00000
  22       11D+1       -0.00000  -0.00534   0.00170  -0.00000   0.19631
  23       11D-1        0.00000  -0.00000   0.00000   0.00000   0.00000
  24       11D+2        0.13288  -0.00000   0.00000  -0.00774  -0.00000
  25       11D-2       -0.00000  -0.00170  -0.00534  -0.00000   0.13133
  26       12D 0       -0.07472  -0.00000   0.00000   0.07240  -0.00000
  27       12D+1       -0.00000  -0.05594   0.01784  -0.00000   0.66965
  28       12D-1        0.00000  -0.00000  -0.00000  -0.00000   0.00000
  29       12D+2        0.12942  -0.00000   0.00000  -0.12540  -0.00000
  30       12D-2       -0.00000  -0.01784  -0.05594  -0.00000   0.44798
  31       13F 0       -0.00000   0.00076  -0.00024   0.00000   0.00877
  32       13F+1       -0.00910   0.00000  -0.00000  -0.00166   0.00000
  33       13F-1       -0.00000   0.00012   0.00039  -0.00000   0.00248
  34       13F+2        0.00000  -0.00108   0.00034  -0.00000  -0.01147
  35       13F-2       -0.00000   0.00000  -0.00000   0.00000   0.00000
  36       13F+3        0.01175  -0.00000   0.00000   0.00215   0.00000
  37       13F-3        0.00000  -0.00040  -0.00126   0.00000  -0.00934
  38 2   H  1S          0.11634   0.00000   0.00000  -0.05409  -0.00000
  39        2S          1.23269  -0.00000   0.00000  -0.09860  -0.00000
  40        3S         -1.03419   0.00000  -0.00000   0.79176   0.00000
  41        4PX         0.03666  -0.00000   0.00000   0.02091  -0.00000
  42        4PY         0.00000   0.00053   0.00166   0.00000  -0.05043
  43        4PZ        -0.00000   0.00166  -0.00053   0.00000  -0.07538
                          16        17        18        19        20
                           V         V         V         V         V
     Eigenvalues --     0.43870   0.47855   0.47886   0.66163   0.77710
   1 1   Cl 1S         -0.00000  -0.00000   0.00000  -0.06952  -0.06524
   2        2S         -0.00000   0.00000   0.00000  -0.03491  -0.02877
   3        3S          0.00000   0.00000  -0.00000   0.46096   0.44167
   4        4S         -0.00000   0.00000   0.00000  -1.58698  -1.91016
   5        5S          0.00000  -0.00000  -0.00000   1.62263   2.79012
   6        6PX         0.00000   0.00000   0.00000  -0.06220  -0.00228
   7        6PY         0.00061  -0.00000   0.00000  -0.00000  -0.00000
   8        6PZ        -0.00041  -0.00000   0.00000  -0.00000  -0.00000
   9        7PX        -0.00000   0.00000   0.00000  -0.03047  -0.02009
  10        7PY        -0.00371   0.00000   0.00000   0.00000   0.00000
  11        7PZ         0.00248   0.00000   0.00000   0.00000   0.00000
  12        8PX         0.00000  -0.00000  -0.00000   0.09612   0.10747
  13        8PY         0.01491  -0.00000  -0.00000  -0.00000  -0.00000
  14        8PZ        -0.00998   0.00000  -0.00000  -0.00000  -0.00000
  15        9PX        -0.00000   0.00000  -0.00000   0.32187  -0.25146
  16        9PY        -0.04890   0.00000  -0.00000   0.00000   0.00000
  17        9PZ         0.03272  -0.00000  -0.00000   0.00000   0.00000
  18       10PX         0.00000   0.00000  -0.00000  -0.29326  -1.25115
  19       10PY         0.09598  -0.00000   0.00000   0.00000   0.00000
  20       10PZ        -0.06421   0.00000   0.00000  -0.00000  -0.00000
  21       11D 0        0.00000   0.21249  -0.00000   0.08888  -0.09430
  22       11D+1       -0.13133   0.00000   0.00000   0.00000  -0.00000
  23       11D-1        0.00000   0.00000   0.24515   0.00000   0.00000
  24       11D+2        0.00000   0.12268  -0.00000  -0.15394   0.16334
  25       11D-2        0.19631  -0.00000  -0.00000   0.00000  -0.00000
  26       12D 0        0.00000   0.72678  -0.00000   0.30295  -0.51876
  27       12D+1       -0.44798   0.00000  -0.00000   0.00000  -0.00000
  28       12D-1        0.00000   0.00000   0.83938   0.00000  -0.00000
  29       12D+2        0.00000   0.41961  -0.00000  -0.52472   0.89851
  30       12D-2        0.66965  -0.00000  -0.00000   0.00000  -0.00000
  31       13F 0       -0.00586   0.00000  -0.00000  -0.00000  -0.00000
  32       13F+1       -0.00000  -0.00741   0.00000   0.00937   0.04210
  33       13F-1        0.00370  -0.00000  -0.00000   0.00000   0.00000
  34       13F+2        0.00767  -0.00000  -0.00000   0.00000   0.00000
  35       13F-2        0.00000  -0.00000  -0.00908   0.00000  -0.00000
  36       13F+3        0.00000  -0.00574   0.00000  -0.01210  -0.05435
  37       13F-3       -0.01395   0.00000  -0.00000   0.00000   0.00000
  38 2   H  1S         -0.00000  -0.00000  -0.00000   0.06035   0.05102
  39        2S         -0.00000   0.00000  -0.00000   1.03167  -1.81907
  40        3S          0.00000   0.00000   0.00000  -1.20319  -0.48914
  41        4PX        -0.00000   0.00000  -0.00000  -0.09173  -0.19319
  42        4PY        -0.07538   0.00000  -0.00000  -0.00000  -0.00000
  43        4PZ         0.05043  -0.00000  -0.00000  -0.00000  -0.00000
                          21        22        23        24        25
                           V         V         V         V         V
     Eigenvalues --     1.51139   1.51139   1.72542   1.79268   1.79268
   1 1   Cl 1S         -0.00000  -0.00000   0.00258  -0.00000  -0.00000
   2        2S          0.00000  -0.00000   0.00470  -0.00000  -0.00000
   3        3S          0.00000   0.00000  -0.01361   0.00000   0.00000
   4        4S         -0.00000   0.00000  -0.22124   0.00000   0.00000
   5        5S          0.00000  -0.00000   0.78926  -0.00000  -0.00000
   6        6PX        -0.00000  -0.00000   0.05191   0.00000   0.00000
   7        6PY        -0.02335   0.02740   0.00000  -0.00167  -0.00213
   8        6PZ         0.02740   0.02335  -0.00000  -0.00213   0.00167
   9        7PX        -0.00000   0.00000   0.01103   0.00000   0.00000
  10        7PY        -0.02008   0.02357  -0.00000   0.00199   0.00255
  11        7PZ         0.02357   0.02008  -0.00000   0.00255  -0.00199
  12        8PX         0.00000  -0.00000  -0.03202  -0.00000  -0.00000
  13        8PY         0.08888  -0.10431   0.00000  -0.01024  -0.01312
  14        8PZ        -0.10431  -0.08888   0.00000  -0.01312   0.01024
  15        9PX        -0.00000   0.00000  -0.34285   0.00000   0.00000
  16        9PY        -0.03761   0.04414   0.00000   0.02795   0.03581
  17        9PZ         0.04414   0.03761  -0.00000   0.03581  -0.02795
  18       10PX         0.00000   0.00000  -0.32107   0.00000   0.00000
  19       10PY         0.12064  -0.14157   0.00000   0.01173   0.01503
  20       10PZ        -0.14157  -0.12064   0.00000   0.01503  -0.01173
  21       11D 0       -0.00000   0.00000   0.37966   0.00000  -0.00000
  22       11D+1        0.24791   0.21124  -0.00000   0.89666  -0.69995
  23       11D-1        0.00000   0.00000  -0.00000   0.00000  -0.00000
  24       11D+2       -0.00000   0.00000  -0.65759   0.00000  -0.00000
  25       11D-2       -0.21124   0.24791   0.00000   0.69995   0.89666
  26       12D 0        0.00000  -0.00000  -0.53459  -0.00000   0.00000
  27       12D+1        0.13276   0.11313   0.00000  -0.74356   0.58044
  28       12D-1       -0.00000   0.00000   0.00000  -0.00000   0.00000
  29       12D+2        0.00000  -0.00000   0.92594  -0.00000   0.00000
  30       12D-2       -0.11313   0.13276  -0.00000  -0.58044  -0.74356
  31       13F 0       -0.13906  -0.11849   0.00000   0.11055  -0.08630
  32       13F+1       -0.00000   0.00000  -0.21924   0.00000  -0.00000
  33       13F-1        0.04828  -0.05666  -0.00000   0.03573   0.04578
  34       13F+2        0.17938   0.15285   0.00000  -0.14353   0.11204
  35       13F-2        0.00000  -0.00000   0.00000   0.00000  -0.00000
  36       13F+3       -0.00000   0.00000   0.28303   0.00000  -0.00000
  37       13F-3       -0.18727   0.21978  -0.00000  -0.13684  -0.17529
  38 2   H  1S         -0.00000   0.00000  -0.52808  -0.00000  -0.00000
  39        2S          0.00000  -0.00000  -0.14795   0.00000   0.00000
  40        3S         -0.00000   0.00000  -0.44371  -0.00000  -0.00000
  41        4PX        -0.00000   0.00000  -0.51239   0.00000   0.00000
  42        4PY        -0.56703   0.66545   0.00000  -0.14388  -0.18431
  43        4PZ         0.66545   0.56703   0.00000  -0.18431   0.14388
                          26        27        28        29        30
                           V         V         V         V         V
     Eigenvalues --     1.79462   1.79480   1.94112   2.11415   2.11481
   1 1   Cl 1S          0.00000   0.00000  -0.00543   0.00000   0.00000
   2        2S          0.00000   0.00000   0.00032   0.00000  -0.00000
   3        3S         -0.00000  -0.00000   0.03916  -0.00000  -0.00000
   4        4S          0.00000   0.00000   0.08701   0.00000  -0.00000
   5        5S         -0.00000   0.00000  -0.77833  -0.00000   0.00000
   6        6PX         0.00000  -0.00000   0.04070  -0.00000   0.00000
   7        6PY        -0.00000  -0.00000   0.00000  -0.00000  -0.00000
   8        6PZ         0.00000   0.00000  -0.00000  -0.00000  -0.00000
   9        7PX         0.00000  -0.00000   0.07117  -0.00000   0.00000
  10        7PY         0.00000  -0.00000   0.00000  -0.00000  -0.00000
  11        7PZ        -0.00000  -0.00000  -0.00000  -0.00000  -0.00000
  12        8PX        -0.00000   0.00000  -0.39657   0.00000  -0.00000
  13        8PY        -0.00000   0.00000  -0.00000   0.00000   0.00000
  14        8PZ         0.00000  -0.00000   0.00000   0.00000   0.00000
  15        9PX         0.00000  -0.00000   0.85226  -0.00000   0.00000
  16        9PY         0.00000  -0.00000   0.00000  -0.00000  -0.00000
  17        9PZ        -0.00000  -0.00000  -0.00000  -0.00000  -0.00000
  18       10PX         0.00000  -0.00000   0.45150   0.00000  -0.00000
  19       10PY         0.00000   0.00000  -0.00000   0.00000   0.00000
  20       10PZ        -0.00000  -0.00000   0.00000   0.00000   0.00000
  21       11D 0        0.00000   1.03384  -0.42003  -0.00608  -0.00000
  22       11D+1       -0.00000  -0.00000   0.00000  -0.00000  -0.00000
  23       11D-1        1.19381  -0.00000  -0.00000   0.00000  -0.00903
  24       11D+2        0.00000   0.59689   0.72751  -0.00351  -0.00000
  25       11D-2        0.00000  -0.00000  -0.00000   0.00000  -0.00000
  26       12D 0       -0.00000  -0.76528   0.61552   0.01279   0.00000
  27       12D+1        0.00000   0.00000  -0.00000  -0.00000   0.00000
  28       12D-1       -0.88349   0.00000   0.00000  -0.00000   0.01595
  29       12D+2       -0.00000  -0.44183  -1.06611   0.00738   0.00000
  30       12D-2       -0.00000  -0.00000   0.00000  -0.00000   0.00000
  31       13F 0       -0.00000  -0.00000  -0.00000  -0.00000  -0.00000
  32       13F+1        0.00000   0.00617  -0.29032   0.79051   0.00000
  33       13F-1        0.00000   0.00000  -0.00000   0.00000  -0.00000
  34       13F+2        0.00000   0.00000  -0.00000  -0.00000  -0.00000
  35       13F-2        0.00943  -0.00000   0.00000  -0.00000   0.99991
  36       13F+3        0.00000   0.00478   0.37481   0.61233   0.00000
  37       13F-3       -0.00000  -0.00000   0.00000   0.00000  -0.00000
  38 2   H  1S         -0.00000   0.00000  -0.88597  -0.00000   0.00000
  39        2S          0.00000  -0.00000   2.57326   0.00000  -0.00000
  40        3S         -0.00000   0.00000  -0.58696  -0.00000   0.00000
  41        4PX        -0.00000  -0.00000   0.31228  -0.00000  -0.00000
  42        4PY        -0.00000  -0.00000   0.00000  -0.00000   0.00000
  43        4PZ         0.00000   0.00000  -0.00000  -0.00000   0.00000
                          31        32        33        34        35
                           V         V         V         V         V
     Eigenvalues --     2.14174   2.14174   2.20116   2.21133   2.21133
   1 1   Cl 1S          0.00000   0.00000  -0.00938   0.00000  -0.00000
   2        2S          0.00000   0.00000  -0.00798   0.00000  -0.00000
   3        3S         -0.00000  -0.00000   0.06895  -0.00000   0.00000
   4        4S          0.00000   0.00000  -0.29766   0.00000  -0.00000
   5        5S         -0.00000  -0.00000   0.39070  -0.00000   0.00000
   6        6PX        -0.00000  -0.00000   0.28806  -0.00000   0.00000
   7        6PY        -0.00001  -0.00003  -0.00000  -0.18073  -0.24762
   8        6PZ         0.00003  -0.00001  -0.00000  -0.24762   0.18073
   9        7PX        -0.00000  -0.00000   0.39046  -0.00000   0.00000
  10        7PY        -0.00000  -0.00003  -0.00000  -0.23805  -0.32616
  11        7PZ         0.00003  -0.00000  -0.00000  -0.32616   0.23805
  12        8PX         0.00000   0.00000  -1.97060   0.00000  -0.00000
  13        8PY         0.00002   0.00013   0.00000   1.19856   1.64217
  14        8PZ        -0.00013   0.00002   0.00000   1.64217  -1.19856
  15        9PX        -0.00000  -0.00000   2.10499  -0.00000   0.00000
  16        9PY        -0.00000  -0.00002  -0.00000  -1.18738  -1.62686
  17        9PZ         0.00002  -0.00000  -0.00000  -1.62686   1.18738
  18       10PX         0.00000   0.00000  -0.91891   0.00000  -0.00000
  19       10PY        -0.00001  -0.00007   0.00000   0.43703   0.59879
  20       10PZ         0.00007  -0.00001   0.00000   0.59879  -0.43703
  21       11D 0       -0.00000  -0.00000   0.06177  -0.00000   0.00000
  22       11D+1        0.00085  -0.00014   0.00000   0.05122  -0.03738
  23       11D-1       -0.00000  -0.00000  -0.00000   0.00000   0.00000
  24       11D+2        0.00000   0.00000  -0.10698   0.00000   0.00000
  25       11D-2       -0.00014  -0.00085   0.00000   0.03738   0.05122
  26       12D 0        0.00000   0.00000  -0.03042   0.00000   0.00000
  27       12D+1       -0.00064   0.00011  -0.00000  -0.04503   0.03287
  28       12D-1        0.00000   0.00000   0.00000  -0.00000  -0.00000
  29       12D+2       -0.00000  -0.00000   0.05270  -0.00000  -0.00000
  30       12D-2        0.00011   0.00064  -0.00000  -0.03287  -0.04503
  31       13F 0        0.77944  -0.13138  -0.00000  -0.09601   0.07007
  32       13F+1        0.00000  -0.00000   0.20321  -0.00000   0.00000
  33       13F-1        0.16094   0.95483  -0.00000  -0.02859  -0.03917
  34       13F+2        0.60402  -0.10181   0.00000   0.12391  -0.09044
  35       13F-2        0.00000   0.00000  -0.00000  -0.00000   0.00000
  36       13F+3        0.00000  -0.00000  -0.26235   0.00000   0.00000
  37       13F-3        0.04152   0.24631   0.00000   0.11078   0.15178
  38 2   H  1S          0.00000  -0.00000  -0.15494   0.00000  -0.00000
  39        2S          0.00000   0.00000   0.38293  -0.00000   0.00000
  40        3S          0.00000   0.00000  -0.48887   0.00000  -0.00000
  41        4PX         0.00000   0.00000   0.06116  -0.00000   0.00000
  42        4PY         0.00005   0.00032  -0.00000  -0.01010  -0.01384
  43        4PZ        -0.00032   0.00005  -0.00000  -0.01384   0.01010
                          36        37        38        39        40
                           V         V         V         V         V
     Eigenvalues --     2.49672   2.49672   2.52077   3.29200  10.74866
   1 1   Cl 1S         -0.00000   0.00000  -0.02450  -0.01579   0.00000
   2        2S         -0.00000   0.00000  -0.02127  -0.03543  -0.00000
   3        3S          0.00000  -0.00000   0.18096   0.11559  -0.00000
   4        4S         -0.00000   0.00000  -0.28208   0.25159   0.00000
   5        5S         -0.00000   0.00000  -0.87681  -1.88022  -0.00000
   6        6PX        -0.00000   0.00000  -0.08792   0.06696  -0.00000
   7        6PY         0.02706   0.04764   0.00000   0.00000   0.75979
   8        6PZ        -0.04764   0.02706   0.00000   0.00000  -0.89420
   9        7PX        -0.00000   0.00000  -0.04028   0.18991   0.00000
  10        7PY         0.03976   0.06999   0.00000  -0.00000  -1.42841
  11        7PZ        -0.06999   0.03976   0.00000   0.00000   1.68111
  12        8PX         0.00000  -0.00000   0.12470  -1.18617  -0.00000
  13        8PY        -0.21051  -0.37059  -0.00000  -0.00000   1.21436
  14        8PZ         0.37059  -0.21051  -0.00000  -0.00000  -1.42919
  15        9PX         0.00000  -0.00000   0.99030   2.58085   0.00000
  16        9PY         0.23621   0.41583   0.00000   0.00000  -0.63168
  17        9PZ        -0.41583   0.23621   0.00000   0.00000   0.74343
  18       10PX         0.00000  -0.00000   0.33859   0.33218  -0.00000
  19       10PY        -0.01620  -0.02851  -0.00000  -0.00000   0.18763
  20       10PZ         0.02851  -0.01620  -0.00000   0.00000  -0.22083
  21       11D 0        0.00000  -0.00000   0.24100   0.02266  -0.00000
  22       11D+1       -0.18826   0.10694   0.00000   0.00000   0.00242
  23       11D-1       -0.00000   0.00000   0.00000  -0.00000   0.00000
  24       11D+2        0.00000   0.00000  -0.41743  -0.03924   0.00000
  25       11D-2        0.10694   0.18826   0.00000  -0.00000  -0.00206
  26       12D 0       -0.00000  -0.00000   0.22991   0.77521   0.00000
  27       12D+1        0.40881  -0.23223  -0.00000  -0.00000  -0.00975
  28       12D-1        0.00000  -0.00000  -0.00000   0.00000  -0.00000
  29       12D+2       -0.00000   0.00000  -0.39822  -1.34270  -0.00000
  30       12D-2       -0.23223  -0.40881  -0.00000   0.00000   0.00829
  31       13F 0        0.52633  -0.29899  -0.00000  -0.00000  -0.00475
  32       13F+1        0.00000   0.00000  -0.00823  -0.76999  -0.00000
  33       13F-1       -0.12185  -0.21450  -0.00000  -0.00000   0.00165
  34       13F+2       -0.67903   0.38572   0.00000   0.00000   0.00614
  35       13F-2       -0.00000   0.00000   0.00000  -0.00000   0.00000
  36       13F+3        0.00000  -0.00000   0.01063   0.99405  -0.00000
  37       13F-3        0.47257   0.83192   0.00000   0.00000  -0.00639
  38 2   H  1S         -0.00000   0.00000  -0.91267   0.84746  -0.00000
  39        2S          0.00000  -0.00000   2.45244   2.12072   0.00000
  40        3S         -0.00000   0.00000  -0.34051   0.09457  -0.00000
  41        4PX         0.00000  -0.00000   1.38873   1.69185   0.00000
  42        4PY        -0.39579  -0.69676  -0.00000  -0.00000   0.01872
  43        4PZ         0.69676  -0.39579  -0.00000  -0.00000  -0.02203
                          41        42        43
                           V         V         V
     Eigenvalues --    10.74866  10.82508  24.58482
   1 1   Cl 1S          0.00000   0.00347  -0.65749
   2        2S         -0.00000  -0.02534   2.52368
   3        3S         -0.00000  -0.01151   3.15024
   4        4S          0.00000  -0.00494  -1.56971
   5        5S         -0.00000  -0.06501   0.67448
   6        6PX        -0.00000  -1.17614  -0.02185
   7        6PY        -0.89420   0.00000   0.00000
   8        6PZ        -0.75979   0.00000   0.00000
   9        7PX         0.00000   2.23292   0.07332
  10        7PY         1.68111  -0.00000  -0.00000
  11        7PZ         1.42841  -0.00000  -0.00000
  12        8PX        -0.00000  -1.98049  -0.20657
  13        8PY        -1.42919   0.00000   0.00000
  14        8PZ        -1.21436   0.00000   0.00000
  15        9PX         0.00000   1.19879   0.48788
  16        9PY         0.74343  -0.00000  -0.00000
  17        9PZ         0.63168  -0.00000  -0.00000
  18       10PX        -0.00000  -0.30616  -0.17209
  19       10PY        -0.22083   0.00000   0.00000
  20       10PZ        -0.18763   0.00000   0.00000
  21       11D 0        0.00000  -0.00762   0.01734
  22       11D+1        0.00206  -0.00000   0.00000
  23       11D-1       -0.00000   0.00000   0.00000
  24       11D+2        0.00000   0.01320  -0.03004
  25       11D-2        0.00242  -0.00000   0.00000
  26       12D 0        0.00000   0.07590   0.08977
  27       12D+1       -0.00829   0.00000   0.00000
  28       12D-1        0.00000  -0.00000  -0.00000
  29       12D+2       -0.00000  -0.13146  -0.15549
  30       12D-2       -0.00975   0.00000   0.00000
  31       13F 0       -0.00404   0.00000   0.00000
  32       13F+1       -0.00000  -0.04944  -0.06926
  33       13F-1       -0.00194   0.00000  -0.00000
  34       13F+2        0.00521  -0.00000  -0.00000
  35       13F-2        0.00000  -0.00000  -0.00000
  36       13F+3        0.00000   0.06383   0.08942
  37       13F-3        0.00752  -0.00000   0.00000
  38 2   H  1S          0.00000   0.07533  -0.00265
  39        2S          0.00000   0.26698   0.45450
  40        3S         -0.00000  -0.14820  -0.34261
  41        4PX         0.00000   0.09671   0.30022
  42        4PY        -0.02203   0.00000  -0.00000
  43        4PZ        -0.01872   0.00000   0.00000
     Density Matrix:
                           1         2         3         4         5
   1 1   Cl 1S          2.19196
   2        2S          0.07021   0.10381
   3        3S         -0.60835  -0.43093   1.91774
   4        4S          0.11475   0.09154  -0.65313   0.93915
   5        5S          0.09102   0.07897  -0.52300   0.68422   0.51919
   6        6PX        -0.00459  -0.00434   0.02655  -0.03653  -0.05814
   7        6PY        -0.00000  -0.00000  -0.00000  -0.00000   0.00000
   8        6PZ        -0.00000  -0.00000  -0.00000   0.00000  -0.00000
   9        7PX        -0.00171  -0.00169   0.01090  -0.01667  -0.02760
  10        7PY         0.00000  -0.00000   0.00000  -0.00000   0.00000
  11        7PZ         0.00000  -0.00000   0.00000  -0.00000  -0.00000
  12        8PX         0.00581   0.00465  -0.03214   0.04624   0.07457
  13        8PY         0.00000   0.00000  -0.00000   0.00000   0.00000
  14        8PZ        -0.00000  -0.00000  -0.00000   0.00000   0.00000
  15        9PX         0.01185   0.01215  -0.07660   0.09822   0.15313
  16        9PY        -0.00000  -0.00000   0.00000  -0.00000   0.00000
  17        9PZ         0.00000   0.00000  -0.00000  -0.00000   0.00000
  18       10PX         0.00715   0.00576  -0.04080   0.06012   0.08012
  19       10PY         0.00000   0.00000  -0.00000  -0.00000   0.00000
  20       10PZ        -0.00000  -0.00000   0.00000  -0.00000   0.00000
  21       11D 0       -0.00020  -0.00010   0.00144  -0.00306   0.00255
  22       11D+1        0.00000   0.00000  -0.00000   0.00000   0.00000
  23       11D-1       -0.00000  -0.00000   0.00000  -0.00000  -0.00000
  24       11D+2        0.00034   0.00017  -0.00249   0.00530  -0.00442
  25       11D-2        0.00000  -0.00000   0.00000  -0.00000  -0.00000
  26       12D 0       -0.00058  -0.00016   0.00156  -0.00260   0.00217
  27       12D+1       -0.00000  -0.00000   0.00000  -0.00000  -0.00000
  28       12D-1       -0.00000  -0.00000   0.00000  -0.00000  -0.00000
  29       12D+2        0.00101   0.00027  -0.00269   0.00450  -0.00375
  30       12D-2        0.00000  -0.00000   0.00000   0.00000  -0.00000
  31       13F 0       -0.00000  -0.00000   0.00000   0.00000   0.00000
  32       13F+1        0.00035   0.00007  -0.00116   0.00260  -0.00004
  33       13F-1       -0.00000  -0.00000   0.00000  -0.00000  -0.00000
  34       13F+2        0.00000   0.00000  -0.00000  -0.00000  -0.00000
  35       13F-2       -0.00000  -0.00000   0.00000  -0.00000  -0.00000
  36       13F+3       -0.00046  -0.00009   0.00150  -0.00335   0.00005
  37       13F-3        0.00000   0.00000  -0.00000   0.00000   0.00000
  38 2   H  1S          0.00702   0.00560  -0.03854   0.05101   0.00268
  39        2S          0.00241   0.00300  -0.01743   0.01558  -0.04188
  40        3S         -0.00242  -0.00327   0.01772  -0.01683  -0.02407
  41        4PX         0.00178   0.00239  -0.01364   0.01377   0.00606
  42        4PY        -0.00000  -0.00000   0.00000  -0.00000  -0.00000
  43        4PZ        -0.00000  -0.00000   0.00000   0.00000   0.00000
                           6         7         8         9        10
   6        6PX         1.06929
   7        6PY        -0.00000   1.09928
   8        6PZ        -0.00000   0.00000   1.09928
   9        7PX         0.51536   0.00000   0.00000   0.24839
  10        7PY        -0.00000   0.52862   0.00000   0.00000   0.25420
  11        7PZ        -0.00000   0.00000   0.52862   0.00000   0.00000
  12        8PX         0.03381   0.00000  -0.00000   0.01566   0.00000
  13        8PY        -0.00000  -0.00644  -0.00000  -0.00000  -0.00323
  14        8PZ        -0.00000  -0.00000  -0.00644  -0.00000  -0.00000
  15        9PX        -0.16373  -0.00000   0.00000  -0.08005  -0.00000
  16        9PY         0.00000  -0.23948   0.00000   0.00000  -0.11542
  17        9PZ         0.00000   0.00000  -0.23948   0.00000  -0.00000
  18       10PX        -0.05966  -0.00000   0.00000  -0.02926  -0.00000
  19       10PY         0.00000  -0.14706  -0.00000   0.00000  -0.07089
  20       10PZ        -0.00000  -0.00000  -0.14706  -0.00000  -0.00000
  21       11D 0       -0.00750   0.00000  -0.00000  -0.00369   0.00000
  22       11D+1        0.00000   0.00000   0.00098   0.00000   0.00000
  23       11D-1        0.00000  -0.00000   0.00000   0.00000  -0.00000
  24       11D+2        0.01299   0.00000  -0.00000   0.00639   0.00000
  25       11D-2        0.00000   0.00098   0.00000   0.00000   0.00047
  26       12D 0       -0.00795  -0.00000   0.00000  -0.00390  -0.00000
  27       12D+1       -0.00000  -0.00000   0.00923  -0.00000  -0.00000
  28       12D-1        0.00000   0.00000  -0.00000   0.00000   0.00000
  29       12D+2        0.01377   0.00000  -0.00000   0.00675   0.00000
  30       12D-2       -0.00000   0.00923  -0.00000  -0.00000   0.00445
  31       13F 0       -0.00000  -0.00000   0.00197  -0.00000  -0.00000
  32       13F+1        0.00341   0.00000  -0.00000   0.00167   0.00000
  33       13F-1       -0.00000   0.00084  -0.00000  -0.00000   0.00041
  34       13F+2        0.00000  -0.00000  -0.00259   0.00000  -0.00000
  35       13F-2       -0.00000  -0.00000  -0.00000  -0.00000  -0.00000
  36       13F+3       -0.00440  -0.00000   0.00000  -0.00216  -0.00000
  37       13F-3        0.00000  -0.00315   0.00000   0.00000  -0.00152
  38 2   H  1S          0.05675   0.00000  -0.00000   0.02794   0.00000
  39        2S          0.08804  -0.00000   0.00000   0.04328  -0.00000
  40        3S          0.02318  -0.00000   0.00000   0.01133  -0.00000
  41        4PX         0.00540  -0.00000   0.00000   0.00269  -0.00000
  42        4PY        -0.00000  -0.00720  -0.00000  -0.00000  -0.00347
  43        4PZ        -0.00000  -0.00000  -0.00720  -0.00000  -0.00000
                          11        12        13        14        15
  11        7PZ         0.25420
  12        8PX        -0.00000   0.10006
  13        8PY        -0.00000   0.00000   0.14861
  14        8PZ        -0.00323  -0.00000   0.00000   0.14861
  15        9PX         0.00000   0.17590   0.00000   0.00000   0.35636
  16        9PY         0.00000  -0.00000   0.28254  -0.00000  -0.00000
  17        9PZ        -0.11542  -0.00000   0.00000   0.28254   0.00000
  18       10PX         0.00000   0.08089  -0.00000  -0.00000   0.16065
  19       10PY        -0.00000  -0.00000   0.19355   0.00000   0.00000
  20       10PZ        -0.07089  -0.00000   0.00000   0.19355   0.00000
  21       11D 0       -0.00000   0.01004  -0.00000   0.00000   0.01990
  22       11D+1        0.00047   0.00000   0.00000  -0.00303  -0.00000
  23       11D-1        0.00000  -0.00000  -0.00000  -0.00000  -0.00000
  24       11D+2       -0.00000  -0.01739  -0.00000   0.00000  -0.03446
  25       11D-2        0.00000   0.00000  -0.00303  -0.00000   0.00000
  26       12D 0        0.00000   0.00839   0.00000  -0.00000   0.01698
  27       12D+1        0.00445  -0.00000  -0.00000  -0.01060  -0.00000
  28       12D-1       -0.00000  -0.00000  -0.00000   0.00000  -0.00000
  29       12D+2       -0.00000  -0.01453   0.00000  -0.00000  -0.02941
  30       12D-2       -0.00000  -0.00000  -0.01060   0.00000   0.00000
  31       13F 0        0.00095  -0.00000   0.00000  -0.00256  -0.00000
  32       13F+1       -0.00000  -0.00391   0.00000   0.00000  -0.00784
  33       13F-1       -0.00000   0.00000  -0.00110   0.00000   0.00000
  34       13F+2       -0.00125  -0.00000  -0.00000   0.00337  -0.00000
  35       13F-2       -0.00000  -0.00000   0.00000  -0.00000  -0.00000
  36       13F+3        0.00000   0.00505   0.00000   0.00000   0.01012
  37       13F-3        0.00000   0.00000   0.00408  -0.00000  -0.00000
  38 2   H  1S         -0.00000  -0.07122  -0.00000   0.00000  -0.14165
  39        2S          0.00000  -0.11341  -0.00000   0.00000  -0.22548
  40        3S          0.00000  -0.02527  -0.00000  -0.00000  -0.05118
  41        4PX         0.00000  -0.00818  -0.00000   0.00000  -0.01597
  42        4PY        -0.00000  -0.00000   0.00977   0.00000   0.00000
  43        4PZ        -0.00347  -0.00000  -0.00000   0.00977   0.00000
                          16        17        18        19        20
  16        9PY         0.58416
  17        9PZ        -0.00000   0.58416
  18       10PX        -0.00000  -0.00000   0.07291
  19       10PY         0.39665   0.00000  -0.00000   0.26958
  20       10PZ        -0.00000   0.39665  -0.00000   0.00000   0.26958
  21       11D 0       -0.00000   0.00000   0.00884  -0.00000   0.00000
  22       11D+1       -0.00000  -0.00594   0.00000  -0.00000  -0.00406
  23       11D-1        0.00000  -0.00000  -0.00000   0.00000  -0.00000
  24       11D+2       -0.00000   0.00000  -0.01532  -0.00000   0.00000
  25       11D-2       -0.00594  -0.00000   0.00000  -0.00406  -0.00000
  26       12D 0        0.00000  -0.00000   0.00753   0.00000  -0.00000
  27       12D+1       -0.00000  -0.02196   0.00000  -0.00000  -0.01491
  28       12D-1       -0.00000   0.00000  -0.00000  -0.00000   0.00000
  29       12D+2        0.00000  -0.00000  -0.01304   0.00000  -0.00000
  30       12D-2       -0.02196   0.00000   0.00000  -0.01491   0.00000
  31       13F 0        0.00000  -0.00525  -0.00000   0.00000  -0.00357
  32       13F+1        0.00000   0.00000  -0.00345   0.00000   0.00000
  33       13F-1       -0.00225   0.00000   0.00000  -0.00153   0.00000
  34       13F+2       -0.00000   0.00691  -0.00000   0.00000   0.00470
  35       13F-2        0.00000  -0.00000  -0.00000   0.00000  -0.00000
  36       13F+3        0.00000   0.00000   0.00446   0.00000   0.00000
  37       13F-3        0.00838  -0.00000   0.00000   0.00569  -0.00000
  38 2   H  1S         -0.00000  -0.00000  -0.06244  -0.00000   0.00000
  39        2S          0.00000  -0.00000  -0.10057   0.00000  -0.00000
  40        3S         -0.00000  -0.00000  -0.02311  -0.00000  -0.00000
  41        4PX        -0.00000  -0.00000  -0.00693  -0.00000  -0.00000
  42        4PY         0.01997   0.00000  -0.00000   0.01358   0.00000
  43        4PZ        -0.00000   0.01997  -0.00000  -0.00000   0.01358
                          21        22        23        24        25
  21       11D 0        0.00119
  22       11D+1       -0.00000   0.00006
  23       11D-1       -0.00000   0.00000   0.00000
  24       11D+2       -0.00207  -0.00000   0.00000   0.00358
  25       11D-2        0.00000   0.00000  -0.00000   0.00000   0.00006
  26       12D 0        0.00102   0.00000  -0.00000  -0.00176  -0.00000
  27       12D+1       -0.00000   0.00022   0.00000  -0.00000   0.00000
  28       12D-1       -0.00000  -0.00000  -0.00000   0.00000   0.00000
  29       12D+2       -0.00176   0.00000   0.00000   0.00305  -0.00000
  30       12D-2        0.00000  -0.00000  -0.00000   0.00000   0.00022
  31       13F 0       -0.00000   0.00005   0.00000  -0.00000   0.00000
  32       13F+1       -0.00048  -0.00000   0.00000   0.00084  -0.00000
  33       13F-1        0.00000  -0.00000  -0.00000  -0.00000   0.00002
  34       13F+2        0.00000  -0.00007  -0.00000   0.00000  -0.00000
  35       13F-2       -0.00000   0.00000  -0.00000   0.00000  -0.00000
  36       13F+3        0.00062  -0.00000  -0.00000  -0.00108  -0.00000
  37       13F-3       -0.00000   0.00000   0.00000  -0.00000  -0.00009
  38 2   H  1S         -0.00877   0.00000   0.00000   0.01518  -0.00000
  39        2S         -0.01334  -0.00000   0.00000   0.02311  -0.00000
  40        3S         -0.00283   0.00000   0.00000   0.00491   0.00000
  41        4PX        -0.00106  -0.00000  -0.00000   0.00184  -0.00000
  42        4PY        -0.00000  -0.00000   0.00000  -0.00000  -0.00020
  43        4PZ         0.00000  -0.00020  -0.00000   0.00000  -0.00000
                          26        27        28        29        30
  26       12D 0        0.00087
  27       12D+1        0.00000   0.00083
  28       12D-1       -0.00000  -0.00000   0.00000
  29       12D+2       -0.00150   0.00000   0.00000   0.00260
  30       12D-2       -0.00000  -0.00000   0.00000  -0.00000   0.00083
  31       13F 0        0.00000   0.00020  -0.00000   0.00000  -0.00000
  32       13F+1       -0.00041  -0.00000   0.00000   0.00071  -0.00000
  33       13F-1        0.00000  -0.00000   0.00000  -0.00000   0.00008
  34       13F+2       -0.00000  -0.00026   0.00000  -0.00000   0.00000
  35       13F-2       -0.00000   0.00000  -0.00000   0.00000  -0.00000
  36       13F+3        0.00053  -0.00000  -0.00000  -0.00092  -0.00000
  37       13F-3        0.00000   0.00000  -0.00000   0.00000  -0.00031
  38 2   H  1S         -0.00747   0.00000   0.00000   0.01293   0.00000
  39        2S         -0.01136   0.00000   0.00000   0.01968  -0.00000
  40        3S         -0.00242   0.00000   0.00000   0.00419   0.00000
  41        4PX        -0.00091   0.00000  -0.00000   0.00157   0.00000
  42        4PY         0.00000  -0.00000  -0.00000   0.00000  -0.00075
  43        4PZ        -0.00000  -0.00075   0.00000  -0.00000   0.00000
                          31        32        33        34        35
  31       13F 0        0.00005
  32       13F+1       -0.00000   0.00020
  33       13F-1       -0.00000  -0.00000   0.00001
  34       13F+2       -0.00006   0.00000   0.00000   0.00008
  35       13F-2        0.00000   0.00000  -0.00000  -0.00000   0.00000
  36       13F+3       -0.00000  -0.00026   0.00000   0.00000  -0.00000
  37       13F-3        0.00000   0.00000  -0.00003  -0.00000   0.00000
  38 2   H  1S          0.00000   0.00359  -0.00000   0.00000   0.00000
  39        2S          0.00000   0.00537  -0.00000   0.00000   0.00000
  40        3S          0.00000   0.00111  -0.00000   0.00000   0.00000
  41        4PX         0.00000   0.00045  -0.00000   0.00000  -0.00000
  42        4PY        -0.00000   0.00000  -0.00008   0.00000   0.00000
  43        4PZ        -0.00018   0.00000   0.00000   0.00024  -0.00000
                          36        37        38        39        40
  36       13F+3        0.00033
  37       13F-3        0.00000   0.00012
  38 2   H  1S         -0.00463   0.00000   0.06531
  39        2S         -0.00693   0.00000   0.09751   0.14967
  40        3S         -0.00144  -0.00000   0.02005   0.03211   0.00738
  41        4PX        -0.00057   0.00000   0.00818   0.01173   0.00222
  42        4PY         0.00000   0.00029  -0.00000  -0.00000  -0.00000
  43        4PZ         0.00000  -0.00000   0.00000  -0.00000  -0.00000
                          41        42        43
  41        4PX         0.00110
  42        4PY        -0.00000   0.00068
  43        4PZ         0.00000   0.00000   0.00068
    Full Mulliken population analysis:
                           1         2         3         4         5
   1 1   Cl 1S          2.19196
   2        2S         -0.00527   0.10381
   3        3S         -0.18578   0.36872   1.91774
   4        4S          0.00957  -0.03232  -0.39356   0.93915
   5        5S          0.00355  -0.01380  -0.17149   0.56577   0.51919
   6        6PX         0.00000   0.00000   0.00000   0.00000   0.00000
   7        6PY         0.00000   0.00000   0.00000   0.00000   0.00000
   8        6PZ         0.00000   0.00000   0.00000   0.00000   0.00000
   9        7PX         0.00000   0.00000   0.00000   0.00000   0.00000
  10        7PY         0.00000   0.00000   0.00000   0.00000   0.00000
  11        7PZ         0.00000   0.00000   0.00000   0.00000   0.00000
  12        8PX         0.00000   0.00000   0.00000   0.00000   0.00000
  13        8PY         0.00000   0.00000   0.00000   0.00000   0.00000
  14        8PZ         0.00000   0.00000   0.00000   0.00000   0.00000
  15        9PX         0.00000   0.00000   0.00000   0.00000   0.00000
  16        9PY         0.00000   0.00000   0.00000   0.00000   0.00000
  17        9PZ         0.00000   0.00000   0.00000   0.00000   0.00000
  18       10PX         0.00000   0.00000   0.00000   0.00000   0.00000
  19       10PY         0.00000   0.00000   0.00000   0.00000   0.00000
  20       10PZ         0.00000   0.00000   0.00000   0.00000   0.00000
  21       11D 0        0.00000   0.00000   0.00000   0.00000   0.00000
  22       11D+1        0.00000   0.00000   0.00000   0.00000   0.00000
  23       11D-1        0.00000   0.00000   0.00000   0.00000   0.00000
  24       11D+2        0.00000  -0.00000  -0.00000   0.00000   0.00000
  25       11D-2        0.00000   0.00000   0.00000   0.00000   0.00000
  26       12D 0        0.00000   0.00000   0.00000   0.00000   0.00000
  27       12D+1        0.00000   0.00000   0.00000   0.00000   0.00000
  28       12D-1        0.00000   0.00000   0.00000   0.00000   0.00000
  29       12D+2       -0.00000  -0.00000   0.00000   0.00000  -0.00000
  30       12D-2        0.00000   0.00000   0.00000   0.00000   0.00000
  31       13F 0        0.00000   0.00000   0.00000   0.00000   0.00000
  32       13F+1        0.00000   0.00000   0.00000   0.00000   0.00000
  33       13F-1        0.00000   0.00000   0.00000   0.00000   0.00000
  34       13F+2        0.00000   0.00000   0.00000   0.00000   0.00000
  35       13F-2        0.00000   0.00000   0.00000   0.00000   0.00000
  36       13F+3        0.00000   0.00000   0.00000   0.00000   0.00000
  37       13F-3        0.00000   0.00000   0.00000   0.00000   0.00000
  38 2   H  1S          0.00000  -0.00001  -0.00026   0.00517   0.00056
  39        2S          0.00002  -0.00013  -0.00151   0.00471  -0.01984
  40        3S         -0.00003   0.00021   0.00223  -0.00664  -0.01548
  41        4PX         0.00001  -0.00007  -0.00092   0.00361   0.00139
  42        4PY         0.00000   0.00000   0.00000   0.00000   0.00000
  43        4PZ         0.00000   0.00000   0.00000   0.00000   0.00000
                           6         7         8         9        10
   6        6PX         1.06929
   7        6PY         0.00000   1.09928
   8        6PZ         0.00000   0.00000   1.09928
   9        7PX         0.32980   0.00000   0.00000   0.24839
  10        7PY         0.00000   0.33828   0.00000   0.00000   0.25420
  11        7PZ         0.00000   0.00000   0.33828   0.00000   0.00000
  12        8PX         0.00923   0.00000   0.00000   0.01133   0.00000
  13        8PY         0.00000  -0.00176   0.00000   0.00000  -0.00234
  14        8PZ         0.00000   0.00000  -0.00176   0.00000   0.00000
  15        9PX        -0.01544   0.00000   0.00000  -0.02617   0.00000
  16        9PY         0.00000  -0.02259   0.00000   0.00000  -0.03773
  17        9PZ         0.00000   0.00000  -0.02259   0.00000   0.00000
  18       10PX        -0.00157   0.00000   0.00000  -0.00303   0.00000
  19       10PY         0.00000  -0.00388   0.00000   0.00000  -0.00733
  20       10PZ         0.00000   0.00000  -0.00388   0.00000   0.00000
  21       11D 0        0.00000   0.00000   0.00000   0.00000   0.00000
  22       11D+1        0.00000   0.00000   0.00000   0.00000   0.00000
  23       11D-1        0.00000   0.00000   0.00000   0.00000   0.00000
  24       11D+2        0.00000   0.00000   0.00000   0.00000   0.00000
  25       11D-2        0.00000   0.00000   0.00000   0.00000   0.00000
  26       12D 0        0.00000   0.00000   0.00000   0.00000   0.00000
  27       12D+1        0.00000   0.00000   0.00000   0.00000   0.00000
  28       12D-1        0.00000   0.00000   0.00000   0.00000   0.00000
  29       12D+2        0.00000   0.00000   0.00000   0.00000   0.00000
  30       12D-2        0.00000   0.00000   0.00000   0.00000   0.00000
  31       13F 0        0.00000   0.00000   0.00000   0.00000   0.00000
  32       13F+1       -0.00000   0.00000   0.00000  -0.00000   0.00000
  33       13F-1        0.00000  -0.00000   0.00000   0.00000  -0.00000
  34       13F+2        0.00000   0.00000  -0.00000   0.00000   0.00000
  35       13F-2        0.00000   0.00000   0.00000   0.00000   0.00000
  36       13F+3        0.00000   0.00000   0.00000   0.00000   0.00000
  37       13F-3        0.00000  -0.00000   0.00000   0.00000  -0.00000
  38 2   H  1S         -0.00010   0.00000   0.00000  -0.00036   0.00000
  39        2S         -0.00151   0.00000   0.00000  -0.00297   0.00000
  40        3S         -0.00020   0.00000   0.00000  -0.00039   0.00000
  41        4PX        -0.00012   0.00000   0.00000  -0.00026   0.00000
  42        4PY         0.00000  -0.00002   0.00000   0.00000  -0.00005
  43        4PZ         0.00000   0.00000  -0.00002   0.00000   0.00000
                          11        12        13        14        15
  11        7PZ         0.25420
  12        8PX         0.00000   0.10006
  13        8PY         0.00000   0.00000   0.14861
  14        8PZ        -0.00234   0.00000   0.00000   0.14861
  15        9PX         0.00000   0.13062   0.00000   0.00000   0.35636
  16        9PY         0.00000   0.00000   0.20982   0.00000   0.00000
  17        9PZ        -0.03773   0.00000   0.00000   0.20982   0.00000
  18       10PX         0.00000   0.02545   0.00000   0.00000   0.11348
  19       10PY         0.00000   0.00000   0.06091   0.00000   0.00000
  20       10PZ        -0.00733   0.00000   0.00000   0.06091   0.00000
  21       11D 0        0.00000   0.00000   0.00000   0.00000   0.00000
  22       11D+1        0.00000   0.00000   0.00000   0.00000   0.00000
  23       11D-1        0.00000   0.00000   0.00000   0.00000   0.00000
  24       11D+2        0.00000   0.00000   0.00000   0.00000   0.00000
  25       11D-2        0.00000   0.00000   0.00000   0.00000   0.00000
  26       12D 0        0.00000   0.00000   0.00000   0.00000   0.00000
  27       12D+1        0.00000   0.00000   0.00000   0.00000   0.00000
  28       12D-1        0.00000   0.00000   0.00000   0.00000   0.00000
  29       12D+2        0.00000   0.00000   0.00000   0.00000   0.00000
  30       12D-2        0.00000   0.00000   0.00000   0.00000   0.00000
  31       13F 0        0.00000   0.00000   0.00000  -0.00000   0.00000
  32       13F+1        0.00000   0.00000   0.00000   0.00000   0.00000
  33       13F-1        0.00000   0.00000   0.00000   0.00000   0.00000
  34       13F+2        0.00000   0.00000   0.00000  -0.00000   0.00000
  35       13F-2        0.00000   0.00000   0.00000   0.00000   0.00000
  36       13F+3        0.00000  -0.00000   0.00000   0.00000  -0.00000
  37       13F-3        0.00000   0.00000   0.00000   0.00000   0.00000
  38 2   H  1S          0.00000   0.00651   0.00000   0.00000   0.04361
  39        2S          0.00000   0.02452   0.00000   0.00000   0.10982
  40        3S          0.00000   0.00281   0.00000   0.00000   0.01488
  41        4PX         0.00000   0.00243   0.00000   0.00000   0.00605
  42        4PY         0.00000   0.00000   0.00067   0.00000   0.00000
  43        4PZ        -0.00005   0.00000   0.00000   0.00067   0.00000
                          16        17        18        19        20
  16        9PY         0.58416
  17        9PZ         0.00000   0.58416
  18       10PX         0.00000   0.00000   0.07291
  19       10PY         0.28020   0.00000   0.00000   0.26958
  20       10PZ         0.00000   0.28020   0.00000   0.00000   0.26958
  21       11D 0        0.00000   0.00000   0.00000   0.00000   0.00000
  22       11D+1        0.00000   0.00000   0.00000   0.00000   0.00000
  23       11D-1        0.00000   0.00000   0.00000   0.00000   0.00000
  24       11D+2        0.00000   0.00000   0.00000   0.00000   0.00000
  25       11D-2        0.00000   0.00000   0.00000   0.00000   0.00000
  26       12D 0        0.00000   0.00000   0.00000   0.00000   0.00000
  27       12D+1        0.00000   0.00000   0.00000   0.00000   0.00000
  28       12D-1        0.00000   0.00000   0.00000   0.00000   0.00000
  29       12D+2        0.00000   0.00000   0.00000   0.00000   0.00000
  30       12D-2        0.00000   0.00000   0.00000   0.00000   0.00000
  31       13F 0        0.00000  -0.00000   0.00000   0.00000   0.00000
  32       13F+1        0.00000   0.00000   0.00000   0.00000   0.00000
  33       13F-1        0.00000   0.00000   0.00000   0.00000   0.00000
  34       13F+2        0.00000   0.00000   0.00000   0.00000  -0.00000
  35       13F-2        0.00000   0.00000   0.00000   0.00000   0.00000
  36       13F+3        0.00000   0.00000  -0.00000   0.00000   0.00000
  37       13F-3        0.00000   0.00000   0.00000   0.00000   0.00000
  38 2   H  1S          0.00000   0.00000   0.02139   0.00000   0.00000
  39        2S          0.00000   0.00000   0.06246   0.00000   0.00000
  40        3S          0.00000   0.00000   0.01259   0.00000   0.00000
  41        4PX         0.00000   0.00000   0.00046   0.00000   0.00000
  42        4PY         0.00369   0.00000   0.00000   0.00283   0.00000
  43        4PZ         0.00000   0.00369   0.00000   0.00000   0.00283
                          21        22        23        24        25
  21       11D 0        0.00119
  22       11D+1        0.00000   0.00006
  23       11D-1        0.00000   0.00000   0.00000
  24       11D+2       -0.00000   0.00000   0.00000   0.00358
  25       11D-2        0.00000   0.00000   0.00000   0.00000   0.00006
  26       12D 0        0.00058   0.00000   0.00000  -0.00000   0.00000
  27       12D+1        0.00000   0.00013   0.00000   0.00000   0.00000
  28       12D-1        0.00000   0.00000  -0.00000   0.00000   0.00000
  29       12D+2        0.00000   0.00000   0.00000   0.00174   0.00000
  30       12D-2        0.00000   0.00000   0.00000   0.00000   0.00013
  31       13F 0        0.00000   0.00000   0.00000   0.00000   0.00000
  32       13F+1        0.00000   0.00000   0.00000   0.00000   0.00000
  33       13F-1        0.00000   0.00000   0.00000   0.00000   0.00000
  34       13F+2        0.00000   0.00000   0.00000   0.00000   0.00000
  35       13F-2        0.00000   0.00000   0.00000   0.00000   0.00000
  36       13F+3        0.00000   0.00000   0.00000   0.00000   0.00000
  37       13F-3        0.00000   0.00000   0.00000   0.00000   0.00000
  38 2   H  1S          0.00060   0.00000   0.00000   0.00179   0.00000
  39        2S          0.00095   0.00000   0.00000   0.00286   0.00000
  40        3S          0.00004   0.00000   0.00000   0.00012   0.00000
  41        4PX         0.00014   0.00000   0.00000   0.00043   0.00000
  42        4PY         0.00000   0.00000   0.00000   0.00000   0.00003
  43        4PZ         0.00000   0.00003   0.00000   0.00000   0.00000
                          26        27        28        29        30
  26       12D 0        0.00087
  27       12D+1        0.00000   0.00083
  28       12D-1        0.00000   0.00000   0.00000
  29       12D+2       -0.00000   0.00000   0.00000   0.00260
  30       12D-2        0.00000   0.00000   0.00000   0.00000   0.00083
  31       13F 0        0.00000   0.00000   0.00000   0.00000   0.00000
  32       13F+1        0.00000   0.00000   0.00000   0.00000   0.00000
  33       13F-1        0.00000   0.00000   0.00000   0.00000   0.00000
  34       13F+2        0.00000   0.00000   0.00000   0.00000   0.00000
  35       13F-2        0.00000   0.00000   0.00000   0.00000   0.00000
  36       13F+3        0.00000   0.00000   0.00000   0.00000   0.00000
  37       13F-3        0.00000   0.00000   0.00000   0.00000   0.00000
  38 2   H  1S          0.00159   0.00000   0.00000   0.00477   0.00000
  39        2S          0.00237   0.00000   0.00000   0.00711   0.00000
  40        3S          0.00015   0.00000   0.00000   0.00044   0.00000
  41        4PX         0.00008   0.00000   0.00000   0.00024   0.00000
  42        4PY         0.00000   0.00000   0.00000   0.00000   0.00029
  43        4PZ         0.00000   0.00029   0.00000   0.00000   0.00000
                          31        32        33        34        35
  31       13F 0        0.00005
  32       13F+1        0.00000   0.00020
  33       13F-1        0.00000   0.00000   0.00001
  34       13F+2       -0.00000   0.00000   0.00000   0.00008
  35       13F-2        0.00000   0.00000   0.00000   0.00000   0.00000
  36       13F+3        0.00000  -0.00000   0.00000   0.00000   0.00000
  37       13F-3        0.00000   0.00000   0.00000   0.00000   0.00000
  38 2   H  1S          0.00000   0.00064   0.00000   0.00000   0.00000
  39        2S          0.00000   0.00044   0.00000   0.00000   0.00000
  40        3S          0.00000   0.00001   0.00000   0.00000   0.00000
  41        4PX         0.00000   0.00005   0.00000   0.00000   0.00000
  42        4PY         0.00000   0.00000   0.00001   0.00000   0.00000
  43        4PZ         0.00004   0.00000   0.00000   0.00006   0.00000
                          36        37        38        39        40
  36       13F+3        0.00033
  37       13F-3        0.00000   0.00012
  38 2   H  1S          0.00107   0.00000   0.06531
  39        2S          0.00073   0.00000   0.06886   0.14967
  40        3S          0.00001   0.00000   0.00749   0.02533   0.00738
  41        4PX         0.00008   0.00000   0.00000   0.00000   0.00000
  42        4PY         0.00000   0.00009   0.00000   0.00000   0.00000
  43        4PZ         0.00000   0.00000   0.00000   0.00000   0.00000
                          41        42        43
  41        4PX         0.00110
  42        4PY         0.00000   0.00068
  43        4PZ         0.00000   0.00000   0.00068
     Gross orbital populations:
                           1
   1 1   Cl 1S          2.01403
   2        2S          0.42115
   3        3S          1.53518
   4        4S          1.09545
   5        5S          0.86983
   6        6PX         1.38937
   7        6PY         1.40931
   8        6PZ         1.40931
   9        7PX         0.55635
  10        7PY         0.54502
  11        7PZ         0.54502
  12        8PX         0.31298
  13        8PY         0.41591
  14        8PZ         0.41591
  15        9PX         0.73321
  16        9PY         1.01754
  17        9PZ         1.01754
  18       10PX         0.30415
  19       10PY         0.60230
  20       10PZ         0.60230
  21       11D 0        0.00351
  22       11D+1        0.00022
  23       11D-1        0.00000
  24       11D+2        0.01052
  25       11D-2        0.00022
  26       12D 0        0.00564
  27       12D+1        0.00125
  28       12D-1        0.00000
  29       12D+2        0.01691
  30       12D-2        0.00125
  31       13F 0        0.00008
  32       13F+1        0.00134
  33       13F-1        0.00001
  34       13F+2        0.00014
  35       13F-2        0.00000
  36       13F+3        0.00223
  37       13F-3        0.00021
  38 2   H  1S          0.22862
  39        2S          0.43389
  40        3S          0.05095
  41        4PX         0.01471
  42        4PY         0.00822
  43        4PZ         0.00822
          Condensed to atoms (all electrons):
               1          2
     1  Cl  16.938932   0.316454
     2  H    0.316454   0.428161
 Mulliken charges:
               1
     1  Cl  -0.255385
     2  H    0.255385
 Sum of Mulliken charges =  -0.00000
 Mulliken charges with hydrogens summed into heavy atoms:
               1
     1  Cl  -0.000000

 Bonding Mulliken population analysis:
      Bonding Density Matrix:
                           1         2         3         4         5
   1 1   Cl 1S          0.00000
   2        2S          0.00000   0.00000
   3        3S          0.00000   0.00000   0.00000
   4        4S          0.00000   0.00000   0.00000   0.00000
   5        5S          0.00000   0.00000   0.00000   0.00000   0.00000
   6        6PX         0.00000   0.00000   0.00000   0.00000   0.00000
   7        6PY         0.00000   0.00000   0.00000   0.00000   0.00000
   8        6PZ         0.00000   0.00000   0.00000   0.00000   0.00000
   9        7PX         0.00000   0.00000   0.00000   0.00000   0.00000
  10        7PY         0.00000   0.00000   0.00000   0.00000   0.00000
  11        7PZ         0.00000   0.00000   0.00000   0.00000   0.00000
  12        8PX         0.00000   0.00000   0.00000   0.00000   0.00000
  13        8PY         0.00000   0.00000   0.00000   0.00000   0.00000
  14        8PZ         0.00000   0.00000   0.00000   0.00000   0.00000
  15        9PX         0.00000   0.00000   0.00000   0.00000   0.00000
  16        9PY         0.00000   0.00000   0.00000   0.00000   0.00000
  17        9PZ         0.00000   0.00000   0.00000   0.00000   0.00000
  18       10PX         0.00000   0.00000   0.00000   0.00000   0.00000
  19       10PY         0.00000   0.00000   0.00000   0.00000   0.00000
  20       10PZ         0.00000   0.00000   0.00000   0.00000   0.00000
  21       11D 0        0.00000   0.00000   0.00000   0.00000   0.00000
  22       11D+1        0.00000   0.00000   0.00000   0.00000   0.00000
  23       11D-1        0.00000   0.00000   0.00000   0.00000   0.00000
  24       11D+2        0.00000   0.00000   0.00000   0.00000   0.00000
  25       11D-2        0.00000   0.00000   0.00000   0.00000   0.00000
  26       12D 0        0.00000   0.00000   0.00000   0.00000   0.00000
  27       12D+1        0.00000   0.00000   0.00000   0.00000   0.00000
  28       12D-1        0.00000   0.00000   0.00000   0.00000   0.00000
  29       12D+2        0.00000   0.00000   0.00000   0.00000   0.00000
  30       12D-2        0.00000   0.00000   0.00000   0.00000   0.00000
  31       13F 0        0.00000   0.00000   0.00000   0.00000   0.00000
  32       13F+1        0.00000   0.00000   0.00000   0.00000   0.00000
  33       13F-1        0.00000   0.00000   0.00000   0.00000   0.00000
  34       13F+2        0.00000   0.00000   0.00000   0.00000   0.00000
  35       13F-2        0.00000   0.00000   0.00000   0.00000   0.00000
  36       13F+3        0.00000   0.00000   0.00000   0.00000   0.00000
  37       13F-3        0.00000   0.00000   0.00000   0.00000   0.00000
  38 2   H  1S          0.00702   0.00560  -0.03854   0.05101   0.00268
  39        2S          0.00241   0.00300  -0.01743   0.01558  -0.04188
  40        3S         -0.00242  -0.00327   0.01772  -0.01683  -0.02407
  41        4PX         0.00178   0.00239  -0.01364   0.01377   0.00606
  42        4PY        -0.00000  -0.00000   0.00000  -0.00000  -0.00000
  43        4PZ        -0.00000  -0.00000   0.00000   0.00000   0.00000
                           6         7         8         9        10
   6        6PX         0.00000
   7        6PY         0.00000   0.00000
   8        6PZ         0.00000   0.00000   0.00000
   9        7PX         0.00000   0.00000   0.00000   0.00000
  10        7PY         0.00000   0.00000   0.00000   0.00000   0.00000
  11        7PZ         0.00000   0.00000   0.00000   0.00000   0.00000
  12        8PX         0.00000   0.00000   0.00000   0.00000   0.00000
  13        8PY         0.00000   0.00000   0.00000   0.00000   0.00000
  14        8PZ         0.00000   0.00000   0.00000   0.00000   0.00000
  15        9PX         0.00000   0.00000   0.00000   0.00000   0.00000
  16        9PY         0.00000   0.00000   0.00000   0.00000   0.00000
  17        9PZ         0.00000   0.00000   0.00000   0.00000   0.00000
  18       10PX         0.00000   0.00000   0.00000   0.00000   0.00000
  19       10PY         0.00000   0.00000   0.00000   0.00000   0.00000
  20       10PZ         0.00000   0.00000   0.00000   0.00000   0.00000
  21       11D 0        0.00000   0.00000   0.00000   0.00000   0.00000
  22       11D+1        0.00000   0.00000   0.00000   0.00000   0.00000
  23       11D-1        0.00000   0.00000   0.00000   0.00000   0.00000
  24       11D+2        0.00000   0.00000   0.00000   0.00000   0.00000
  25       11D-2        0.00000   0.00000   0.00000   0.00000   0.00000
  26       12D 0        0.00000   0.00000   0.00000   0.00000   0.00000
  27       12D+1        0.00000   0.00000   0.00000   0.00000   0.00000
  28       12D-1        0.00000   0.00000   0.00000   0.00000   0.00000
  29       12D+2        0.00000   0.00000   0.00000   0.00000   0.00000
  30       12D-2        0.00000   0.00000   0.00000   0.00000   0.00000
  31       13F 0        0.00000   0.00000   0.00000   0.00000   0.00000
  32       13F+1        0.00000   0.00000   0.00000   0.00000   0.00000
  33       13F-1        0.00000   0.00000   0.00000   0.00000   0.00000
  34       13F+2        0.00000   0.00000   0.00000   0.00000   0.00000
  35       13F-2        0.00000   0.00000   0.00000   0.00000   0.00000
  36       13F+3        0.00000   0.00000   0.00000   0.00000   0.00000
  37       13F-3        0.00000   0.00000   0.00000   0.00000   0.00000
  38 2   H  1S          0.05675   0.00000  -0.00000   0.02794   0.00000
  39        2S          0.08804  -0.00000   0.00000   0.04328  -0.00000
  40        3S          0.02318  -0.00000   0.00000   0.01133  -0.00000
  41        4PX         0.00540  -0.00000   0.00000   0.00269  -0.00000
  42        4PY        -0.00000  -0.00720  -0.00000  -0.00000  -0.00347
  43        4PZ        -0.00000  -0.00000  -0.00720  -0.00000  -0.00000
                          11        12        13        14        15
  11        7PZ         0.00000
  12        8PX         0.00000   0.00000
  13        8PY         0.00000   0.00000   0.00000
  14        8PZ         0.00000   0.00000   0.00000   0.00000
  15        9PX         0.00000   0.00000   0.00000   0.00000   0.00000
  16        9PY         0.00000   0.00000   0.00000   0.00000   0.00000
  17        9PZ         0.00000   0.00000   0.00000   0.00000   0.00000
  18       10PX         0.00000   0.00000   0.00000   0.00000   0.00000
  19       10PY         0.00000   0.00000   0.00000   0.00000   0.00000
  20       10PZ         0.00000   0.00000   0.00000   0.00000   0.00000
  21       11D 0        0.00000   0.00000   0.00000   0.00000   0.00000
  22       11D+1        0.00000   0.00000   0.00000   0.00000   0.00000
  23       11D-1        0.00000   0.00000   0.00000   0.00000   0.00000
  24       11D+2        0.00000   0.00000   0.00000   0.00000   0.00000
  25       11D-2        0.00000   0.00000   0.00000   0.00000   0.00000
  26       12D 0        0.00000   0.00000   0.00000   0.00000   0.00000
  27       12D+1        0.00000   0.00000   0.00000   0.00000   0.00000
  28       12D-1        0.00000   0.00000   0.00000   0.00000   0.00000
  29       12D+2        0.00000   0.00000   0.00000   0.00000   0.00000
  30       12D-2        0.00000   0.00000   0.00000   0.00000   0.00000
  31       13F 0        0.00000   0.00000   0.00000   0.00000   0.00000
  32       13F+1        0.00000   0.00000   0.00000   0.00000   0.00000
  33       13F-1        0.00000   0.00000   0.00000   0.00000   0.00000
  34       13F+2        0.00000   0.00000   0.00000   0.00000   0.00000
  35       13F-2        0.00000   0.00000   0.00000   0.00000   0.00000
  36       13F+3        0.00000   0.00000   0.00000   0.00000   0.00000
  37       13F-3        0.00000   0.00000   0.00000   0.00000   0.00000
  38 2   H  1S         -0.00000  -0.07122  -0.00000   0.00000  -0.14165
  39        2S          0.00000  -0.11341  -0.00000   0.00000  -0.22548
  40        3S          0.00000  -0.02527  -0.00000  -0.00000  -0.05118
  41        4PX         0.00000  -0.00818  -0.00000   0.00000  -0.01597
  42        4PY        -0.00000  -0.00000   0.00977   0.00000   0.00000
  43        4PZ        -0.00347  -0.00000  -0.00000   0.00977   0.00000
                          16        17        18        19        20
  16        9PY         0.00000
  17        9PZ         0.00000   0.00000
  18       10PX         0.00000   0.00000   0.00000
  19       10PY         0.00000   0.00000   0.00000   0.00000
  20       10PZ         0.00000   0.00000   0.00000   0.00000   0.00000
  21       11D 0        0.00000   0.00000   0.00000   0.00000   0.00000
  22       11D+1        0.00000   0.00000   0.00000   0.00000   0.00000
  23       11D-1        0.00000   0.00000   0.00000   0.00000   0.00000
  24       11D+2        0.00000   0.00000   0.00000   0.00000   0.00000
  25       11D-2        0.00000   0.00000   0.00000   0.00000   0.00000
  26       12D 0        0.00000   0.00000   0.00000   0.00000   0.00000
  27       12D+1        0.00000   0.00000   0.00000   0.00000   0.00000
  28       12D-1        0.00000   0.00000   0.00000   0.00000   0.00000
  29       12D+2        0.00000   0.00000   0.00000   0.00000   0.00000
  30       12D-2        0.00000   0.00000   0.00000   0.00000   0.00000
  31       13F 0        0.00000   0.00000   0.00000   0.00000   0.00000
  32       13F+1        0.00000   0.00000   0.00000   0.00000   0.00000
  33       13F-1        0.00000   0.00000   0.00000   0.00000   0.00000
  34       13F+2        0.00000   0.00000   0.00000   0.00000   0.00000
  35       13F-2        0.00000   0.00000   0.00000   0.00000   0.00000
  36       13F+3        0.00000   0.00000   0.00000   0.00000   0.00000
  37       13F-3        0.00000   0.00000   0.00000   0.00000   0.00000
  38 2   H  1S         -0.00000  -0.00000  -0.06244  -0.00000   0.00000
  39        2S          0.00000  -0.00000  -0.10057   0.00000  -0.00000
  40        3S         -0.00000  -0.00000  -0.02311  -0.00000  -0.00000
  41        4PX        -0.00000  -0.00000  -0.00693  -0.00000  -0.00000
  42        4PY         0.01997   0.00000  -0.00000   0.01358   0.00000
  43        4PZ        -0.00000   0.01997  -0.00000  -0.00000   0.01358
                          21        22        23        24        25
  21       11D 0        0.00000
  22       11D+1        0.00000   0.00000
  23       11D-1        0.00000   0.00000   0.00000
  24       11D+2        0.00000   0.00000   0.00000   0.00000
  25       11D-2        0.00000   0.00000   0.00000   0.00000   0.00000
  26       12D 0        0.00000   0.00000   0.00000   0.00000   0.00000
  27       12D+1        0.00000   0.00000   0.00000   0.00000   0.00000
  28       12D-1        0.00000   0.00000   0.00000   0.00000   0.00000
  29       12D+2        0.00000   0.00000   0.00000   0.00000   0.00000
  30       12D-2        0.00000   0.00000   0.00000   0.00000   0.00000
  31       13F 0        0.00000   0.00000   0.00000   0.00000   0.00000
  32       13F+1        0.00000   0.00000   0.00000   0.00000   0.00000
  33       13F-1        0.00000   0.00000   0.00000   0.00000   0.00000
  34       13F+2        0.00000   0.00000   0.00000   0.00000   0.00000
  35       13F-2        0.00000   0.00000   0.00000   0.00000   0.00000
  36       13F+3        0.00000   0.00000   0.00000   0.00000   0.00000
  37       13F-3        0.00000   0.00000   0.00000   0.00000   0.00000
  38 2   H  1S         -0.00877   0.00000   0.00000   0.01518  -0.00000
  39        2S         -0.01334  -0.00000   0.00000   0.02311  -0.00000
  40        3S         -0.00283   0.00000   0.00000   0.00491   0.00000
  41        4PX        -0.00106  -0.00000  -0.00000   0.00184  -0.00000
  42        4PY        -0.00000  -0.00000   0.00000  -0.00000  -0.00020
  43        4PZ         0.00000  -0.00020  -0.00000   0.00000  -0.00000
                          26        27        28        29        30
  26       12D 0        0.00000
  27       12D+1        0.00000   0.00000
  28       12D-1        0.00000   0.00000   0.00000
  29       12D+2        0.00000   0.00000   0.00000   0.00000
  30       12D-2        0.00000   0.00000   0.00000   0.00000   0.00000
  31       13F 0        0.00000   0.00000   0.00000   0.00000   0.00000
  32       13F+1        0.00000   0.00000   0.00000   0.00000   0.00000
  33       13F-1        0.00000   0.00000   0.00000   0.00000   0.00000
  34       13F+2        0.00000   0.00000   0.00000   0.00000   0.00000
  35       13F-2        0.00000   0.00000   0.00000   0.00000   0.00000
  36       13F+3        0.00000   0.00000   0.00000   0.00000   0.00000
  37       13F-3        0.00000   0.00000   0.00000   0.00000   0.00000
  38 2   H  1S         -0.00747   0.00000   0.00000   0.01293   0.00000
  39        2S         -0.01136   0.00000   0.00000   0.01968  -0.00000
  40        3S         -0.00242   0.00000   0.00000   0.00419   0.00000
  41        4PX        -0.00091   0.00000  -0.00000   0.00157   0.00000
  42        4PY         0.00000  -0.00000  -0.00000   0.00000  -0.00075
  43        4PZ        -0.00000  -0.00075   0.00000  -0.00000   0.00000
                          31        32        33        34        35
  31       13F 0        0.00000
  32       13F+1        0.00000   0.00000
  33       13F-1        0.00000   0.00000   0.00000
  34       13F+2        0.00000   0.00000   0.00000   0.00000
  35       13F-2        0.00000   0.00000   0.00000   0.00000   0.00000
  36       13F+3        0.00000   0.00000   0.00000   0.00000   0.00000
  37       13F-3        0.00000   0.00000   0.00000   0.00000   0.00000
  38 2   H  1S          0.00000   0.00359  -0.00000   0.00000   0.00000
  39        2S          0.00000   0.00537  -0.00000   0.00000   0.00000
  40        3S          0.00000   0.00111  -0.00000   0.00000   0.00000
  41        4PX         0.00000   0.00045  -0.00000   0.00000  -0.00000
  42        4PY        -0.00000   0.00000  -0.00008   0.00000   0.00000
  43        4PZ        -0.00018   0.00000   0.00000   0.00024  -0.00000
                          36        37        38        39        40
  36       13F+3        0.00000
  37       13F-3        0.00000   0.00000
  38 2   H  1S         -0.00463   0.00000   0.00000
  39        2S         -0.00693   0.00000   0.00000   0.00000
  40        3S         -0.00144  -0.00000   0.00000   0.00000   0.00000
  41        4PX        -0.00057   0.00000   0.00000   0.00000   0.00000
  42        4PY         0.00000   0.00029   0.00000   0.00000   0.00000
  43        4PZ         0.00000  -0.00000   0.00000   0.00000   0.00000
                          41        42        43
  41        4PX         0.00000
  42        4PY         0.00000   0.00000
  43        4PZ         0.00000   0.00000   0.00000
    Full Bonding Mulliken population analysis:
                           1         2         3         4         5
   1 1   Cl 1S          0.00000
   2        2S          0.00000   0.00000
   3        3S          0.00000   0.00000   0.00000
   4        4S          0.00000   0.00000   0.00000   0.00000
   5        5S          0.00000   0.00000   0.00000   0.00000   0.00000
   6        6PX         0.00000   0.00000   0.00000   0.00000   0.00000
   7        6PY         0.00000   0.00000   0.00000   0.00000   0.00000
   8        6PZ         0.00000   0.00000   0.00000   0.00000   0.00000
   9        7PX         0.00000   0.00000   0.00000   0.00000   0.00000
  10        7PY         0.00000   0.00000   0.00000   0.00000   0.00000
  11        7PZ         0.00000   0.00000   0.00000   0.00000   0.00000
  12        8PX         0.00000   0.00000   0.00000   0.00000   0.00000
  13        8PY         0.00000   0.00000   0.00000   0.00000   0.00000
  14        8PZ         0.00000   0.00000   0.00000   0.00000   0.00000
  15        9PX         0.00000   0.00000   0.00000   0.00000   0.00000
  16        9PY         0.00000   0.00000   0.00000   0.00000   0.00000
  17        9PZ         0.00000   0.00000   0.00000   0.00000   0.00000
  18       10PX         0.00000   0.00000   0.00000   0.00000   0.00000
  19       10PY         0.00000   0.00000   0.00000   0.00000   0.00000
  20       10PZ         0.00000   0.00000   0.00000   0.00000   0.00000
  21       11D 0        0.00000   0.00000   0.00000   0.00000   0.00000
  22       11D+1        0.00000   0.00000   0.00000   0.00000   0.00000
  23       11D-1        0.00000   0.00000   0.00000   0.00000   0.00000
  24       11D+2        0.00000   0.00000   0.00000   0.00000   0.00000
  25       11D-2        0.00000   0.00000   0.00000   0.00000   0.00000
  26       12D 0        0.00000   0.00000   0.00000   0.00000   0.00000
  27       12D+1        0.00000   0.00000   0.00000   0.00000   0.00000
  28       12D-1        0.00000   0.00000   0.00000   0.00000   0.00000
  29       12D+2        0.00000   0.00000   0.00000   0.00000   0.00000
  30       12D-2        0.00000   0.00000   0.00000   0.00000   0.00000
  31       13F 0        0.00000   0.00000   0.00000   0.00000   0.00000
  32       13F+1        0.00000   0.00000   0.00000   0.00000   0.00000
  33       13F-1        0.00000   0.00000   0.00000   0.00000   0.00000
  34       13F+2        0.00000   0.00000   0.00000   0.00000   0.00000
  35       13F-2        0.00000   0.00000   0.00000   0.00000   0.00000
  36       13F+3        0.00000   0.00000   0.00000   0.00000   0.00000
  37       13F-3        0.00000   0.00000   0.00000   0.00000   0.00000
  38 2   H  1S          0.00000  -0.00001  -0.00026   0.00517   0.00056
  39        2S          0.00002  -0.00013  -0.00151   0.00471  -0.01984
  40        3S         -0.00003   0.00021   0.00223  -0.00664  -0.01548
  41        4PX         0.00001  -0.00007  -0.00092   0.00361   0.00139
  42        4PY         0.00000   0.00000   0.00000   0.00000   0.00000
  43        4PZ         0.00000   0.00000   0.00000   0.00000   0.00000
                           6         7         8         9        10
   6        6PX         0.00000
   7        6PY         0.00000   0.00000
   8        6PZ         0.00000   0.00000   0.00000
   9        7PX         0.00000   0.00000   0.00000   0.00000
  10        7PY         0.00000   0.00000   0.00000   0.00000   0.00000
  11        7PZ         0.00000   0.00000   0.00000   0.00000   0.00000
  12        8PX         0.00000   0.00000   0.00000   0.00000   0.00000
  13        8PY         0.00000   0.00000   0.00000   0.00000   0.00000
  14        8PZ         0.00000   0.00000   0.00000   0.00000   0.00000
  15        9PX         0.00000   0.00000   0.00000   0.00000   0.00000
  16        9PY         0.00000   0.00000   0.00000   0.00000   0.00000
  17        9PZ         0.00000   0.00000   0.00000   0.00000   0.00000
  18       10PX         0.00000   0.00000   0.00000   0.00000   0.00000
  19       10PY         0.00000   0.00000   0.00000   0.00000   0.00000
  20       10PZ         0.00000   0.00000   0.00000   0.00000   0.00000
  21       11D 0        0.00000   0.00000   0.00000   0.00000   0.00000
  22       11D+1        0.00000   0.00000   0.00000   0.00000   0.00000
  23       11D-1        0.00000   0.00000   0.00000   0.00000   0.00000
  24       11D+2        0.00000   0.00000   0.00000   0.00000   0.00000
  25       11D-2        0.00000   0.00000   0.00000   0.00000   0.00000
  26       12D 0        0.00000   0.00000   0.00000   0.00000   0.00000
  27       12D+1        0.00000   0.00000   0.00000   0.00000   0.00000
  28       12D-1        0.00000   0.00000   0.00000   0.00000   0.00000
  29       12D+2        0.00000   0.00000   0.00000   0.00000   0.00000
  30       12D-2        0.00000   0.00000   0.00000   0.00000   0.00000
  31       13F 0        0.00000   0.00000   0.00000   0.00000   0.00000
  32       13F+1        0.00000   0.00000   0.00000   0.00000   0.00000
  33       13F-1        0.00000   0.00000   0.00000   0.00000   0.00000
  34       13F+2        0.00000   0.00000   0.00000   0.00000   0.00000
  35       13F-2        0.00000   0.00000   0.00000   0.00000   0.00000
  36       13F+3        0.00000   0.00000   0.00000   0.00000   0.00000
  37       13F-3        0.00000   0.00000   0.00000   0.00000   0.00000
  38 2   H  1S         -0.00010   0.00000   0.00000  -0.00036   0.00000
  39        2S         -0.00151   0.00000   0.00000  -0.00297   0.00000
  40        3S         -0.00020   0.00000   0.00000  -0.00039   0.00000
  41        4PX        -0.00012   0.00000   0.00000  -0.00026   0.00000
  42        4PY         0.00000  -0.00002   0.00000   0.00000  -0.00005
  43        4PZ         0.00000   0.00000  -0.00002   0.00000   0.00000
                          11        12        13        14        15
  11        7PZ         0.00000
  12        8PX         0.00000   0.00000
  13        8PY         0.00000   0.00000   0.00000
  14        8PZ         0.00000   0.00000   0.00000   0.00000
  15        9PX         0.00000   0.00000   0.00000   0.00000   0.00000
  16        9PY         0.00000   0.00000   0.00000   0.00000   0.00000
  17        9PZ         0.00000   0.00000   0.00000   0.00000   0.00000
  18       10PX         0.00000   0.00000   0.00000   0.00000   0.00000
  19       10PY         0.00000   0.00000   0.00000   0.00000   0.00000
  20       10PZ         0.00000   0.00000   0.00000   0.00000   0.00000
  21       11D 0        0.00000   0.00000   0.00000   0.00000   0.00000
  22       11D+1        0.00000   0.00000   0.00000   0.00000   0.00000
  23       11D-1        0.00000   0.00000   0.00000   0.00000   0.00000
  24       11D+2        0.00000   0.00000   0.00000   0.00000   0.00000
  25       11D-2        0.00000   0.00000   0.00000   0.00000   0.00000
  26       12D 0        0.00000   0.00000   0.00000   0.00000   0.00000
  27       12D+1        0.00000   0.00000   0.00000   0.00000   0.00000
  28       12D-1        0.00000   0.00000   0.00000   0.00000   0.00000
  29       12D+2        0.00000   0.00000   0.00000   0.00000   0.00000
  30       12D-2        0.00000   0.00000   0.00000   0.00000   0.00000
  31       13F 0        0.00000   0.00000   0.00000   0.00000   0.00000
  32       13F+1        0.00000   0.00000   0.00000   0.00000   0.00000
  33       13F-1        0.00000   0.00000   0.00000   0.00000   0.00000
  34       13F+2        0.00000   0.00000   0.00000   0.00000   0.00000
  35       13F-2        0.00000   0.00000   0.00000   0.00000   0.00000
  36       13F+3        0.00000   0.00000   0.00000   0.00000   0.00000
  37       13F-3        0.00000   0.00000   0.00000   0.00000   0.00000
  38 2   H  1S          0.00000   0.00651   0.00000   0.00000   0.04361
  39        2S          0.00000   0.02452   0.00000   0.00000   0.10982
  40        3S          0.00000   0.00281   0.00000   0.00000   0.01488
  41        4PX         0.00000   0.00243   0.00000   0.00000   0.00605
  42        4PY         0.00000   0.00000   0.00067   0.00000   0.00000
  43        4PZ        -0.00005   0.00000   0.00000   0.00067   0.00000
                          16        17        18        19        20
  16        9PY         0.00000
  17        9PZ         0.00000   0.00000
  18       10PX         0.00000   0.00000   0.00000
  19       10PY         0.00000   0.00000   0.00000   0.00000
  20       10PZ         0.00000   0.00000   0.00000   0.00000   0.00000
  21       11D 0        0.00000   0.00000   0.00000   0.00000   0.00000
  22       11D+1        0.00000   0.00000   0.00000   0.00000   0.00000
  23       11D-1        0.00000   0.00000   0.00000   0.00000   0.00000
  24       11D+2        0.00000   0.00000   0.00000   0.00000   0.00000
  25       11D-2        0.00000   0.00000   0.00000   0.00000   0.00000
  26       12D 0        0.00000   0.00000   0.00000   0.00000   0.00000
  27       12D+1        0.00000   0.00000   0.00000   0.00000   0.00000
  28       12D-1        0.00000   0.00000   0.00000   0.00000   0.00000
  29       12D+2        0.00000   0.00000   0.00000   0.00000   0.00000
  30       12D-2        0.00000   0.00000   0.00000   0.00000   0.00000
  31       13F 0        0.00000   0.00000   0.00000   0.00000   0.00000
  32       13F+1        0.00000   0.00000   0.00000   0.00000   0.00000
  33       13F-1        0.00000   0.00000   0.00000   0.00000   0.00000
  34       13F+2        0.00000   0.00000   0.00000   0.00000   0.00000
  35       13F-2        0.00000   0.00000   0.00000   0.00000   0.00000
  36       13F+3        0.00000   0.00000   0.00000   0.00000   0.00000
  37       13F-3        0.00000   0.00000   0.00000   0.00000   0.00000
  38 2   H  1S          0.00000   0.00000   0.02139   0.00000   0.00000
  39        2S          0.00000   0.00000   0.06246   0.00000   0.00000
  40        3S          0.00000   0.00000   0.01259   0.00000   0.00000
  41        4PX         0.00000   0.00000   0.00046   0.00000   0.00000
  42        4PY         0.00369   0.00000   0.00000   0.00283   0.00000
  43        4PZ         0.00000   0.00369   0.00000   0.00000   0.00283
                          21        22        23        24        25
  21       11D 0        0.00000
  22       11D+1        0.00000   0.00000
  23       11D-1        0.00000   0.00000   0.00000
  24       11D+2        0.00000   0.00000   0.00000   0.00000
  25       11D-2        0.00000   0.00000   0.00000   0.00000   0.00000
  26       12D 0        0.00000   0.00000   0.00000   0.00000   0.00000
  27       12D+1        0.00000   0.00000   0.00000   0.00000   0.00000
  28       12D-1        0.00000   0.00000   0.00000   0.00000   0.00000
  29       12D+2        0.00000   0.00000   0.00000   0.00000   0.00000
  30       12D-2        0.00000   0.00000   0.00000   0.00000   0.00000
  31       13F 0        0.00000   0.00000   0.00000   0.00000   0.00000
  32       13F+1        0.00000   0.00000   0.00000   0.00000   0.00000
  33       13F-1        0.00000   0.00000   0.00000   0.00000   0.00000
  34       13F+2        0.00000   0.00000   0.00000   0.00000   0.00000
  35       13F-2        0.00000   0.00000   0.00000   0.00000   0.00000
  36       13F+3        0.00000   0.00000   0.00000   0.00000   0.00000
  37       13F-3        0.00000   0.00000   0.00000   0.00000   0.00000
  38 2   H  1S          0.00060   0.00000   0.00000   0.00179   0.00000
  39        2S          0.00095   0.00000   0.00000   0.00286   0.00000
  40        3S          0.00004   0.00000   0.00000   0.00012   0.00000
  41        4PX         0.00014   0.00000   0.00000   0.00043   0.00000
  42        4PY         0.00000   0.00000   0.00000   0.00000   0.00003
  43        4PZ         0.00000   0.00003   0.00000   0.00000   0.00000
                          26        27        28        29        30
  26       12D 0        0.00000
  27       12D+1        0.00000   0.00000
  28       12D-1        0.00000   0.00000   0.00000
  29       12D+2        0.00000   0.00000   0.00000   0.00000
  30       12D-2        0.00000   0.00000   0.00000   0.00000   0.00000
  31       13F 0        0.00000   0.00000   0.00000   0.00000   0.00000
  32       13F+1        0.00000   0.00000   0.00000   0.00000   0.00000
  33       13F-1        0.00000   0.00000   0.00000   0.00000   0.00000
  34       13F+2        0.00000   0.00000   0.00000   0.00000   0.00000
  35       13F-2        0.00000   0.00000   0.00000   0.00000   0.00000
  36       13F+3        0.00000   0.00000   0.00000   0.00000   0.00000
  37       13F-3        0.00000   0.00000   0.00000   0.00000   0.00000
  38 2   H  1S          0.00159   0.00000   0.00000   0.00477   0.00000
  39        2S          0.00237   0.00000   0.00000   0.00711   0.00000
  40        3S          0.00015   0.00000   0.00000   0.00044   0.00000
  41        4PX         0.00008   0.00000   0.00000   0.00024   0.00000
  42        4PY         0.00000   0.00000   0.00000   0.00000   0.00029
  43        4PZ         0.00000   0.00029   0.00000   0.00000   0.00000
                          31        32        33        34        35
  31       13F 0        0.00000
  32       13F+1        0.00000   0.00000
  33       13F-1        0.00000   0.00000   0.00000
  34       13F+2        0.00000   0.00000   0.00000   0.00000
  35       13F-2        0.00000   0.00000   0.00000   0.00000   0.00000
  36       13F+3        0.00000   0.00000   0.00000   0.00000   0.00000
  37       13F-3        0.00000   0.00000   0.00000   0.00000   0.00000
  38 2   H  1S          0.00000   0.00064   0.00000   0.00000   0.00000
  39        2S          0.00000   0.00044   0.00000   0.00000   0.00000
  40        3S          0.00000   0.00001   0.00000   0.00000   0.00000
  41        4PX         0.00000   0.00005   0.00000   0.00000   0.00000
  42        4PY         0.00000   0.00000   0.00001   0.00000   0.00000
  43        4PZ         0.00004   0.00000   0.00000   0.00006   0.00000
                          36        37        38        39        40
  36       13F+3        0.00000
  37       13F-3        0.00000   0.00000
  38 2   H  1S          0.00107   0.00000   0.00000
  39        2S          0.00073   0.00000   0.00000   0.00000
  40        3S          0.00001   0.00000   0.00000   0.00000   0.00000
  41        4PX         0.00008   0.00000   0.00000   0.00000   0.00000
  42        4PY         0.00000   0.00009   0.00000   0.00000   0.00000
  43        4PZ         0.00000   0.00000   0.00000   0.00000   0.00000
                          41        42        43
  41        4PX         0.00000
  42        4PY         0.00000   0.00000
  43        4PZ         0.00000   0.00000   0.00000
     Bonding Gross orbital populations:
                           1
   1 1   Cl 1S         -0.00000
   2        2S          0.00001
   3        3S         -0.00045
   4        4S          0.00685
   5        5S         -0.03338
   6        6PX        -0.00192
   7        6PY        -0.00002
   8        6PZ        -0.00002
   9        7PX        -0.00398
  10        7PY        -0.00005
  11        7PZ        -0.00005
  12        8PX         0.03628
  13        8PY         0.00067
  14        8PZ         0.00067
  15        9PX         0.17436
  16        9PY         0.00369
  17        9PZ         0.00369
  18       10PX         0.09690
  19       10PY         0.00283
  20       10PZ         0.00283
  21       11D 0        0.00173
  22       11D+1        0.00003
  23       11D-1        0.00000
  24       11D+2        0.00520
  25       11D-2        0.00003
  26       12D 0        0.00419
  27       12D+1        0.00029
  28       12D-1        0.00000
  29       12D+2        0.01257
  30       12D-2        0.00029
  31       13F 0        0.00004
  32       13F+1        0.00114
  33       13F-1        0.00001
  34       13F+2        0.00006
  35       13F-2        0.00000
  36       13F+3        0.00190
  37       13F-3        0.00009
  38 2   H  1S          0.08697
  39        2S          0.19003
  40        3S          0.01077
  41        4PX         0.01362
  42        4PY         0.00754
  43        4PZ         0.00754
          Bonding Condensed to atoms (all electrons):
               1          2
     1  Cl   0.000000   0.316454
     2  H    0.316454   0.000000
 Bonding Mulliken charges:
               1
     1  Cl  16.683546
     2  H    0.683546
 Sum of Bonding Mulliken charges =  17.36709
 Bonding Mulliken charges with hydrogens summed into heavy atoms:
               1
     1  Cl  17.367092
 GSVD:  LWork=       -2193 too small for GESVD, short by        9890 words or        9890 for optimal perf.
 Atomic Valencies and Mayer Atomic Bond Orders:
               1          2
     1  Cl   0.943122   0.943122
     2  H    0.943122   0.943122
 Lowdin Atomic Charges:
               1
     1  Cl  -0.049306
     2  H    0.049306
 Sum of Lowdin charges  =  -0.00000
 Lowdin atomic charges with hydrogens summed into heavy atoms:
               1
     1  Cl  -0.000000
     2  H    0.000000
 Sum of Lowdin charges  =  -0.00000
 Dipole moment from Lowdin charges (Debye):
    X=    -0.3036    Y=     0.0000    Z=     0.0000  Tot=     0.3036
 Electronic spatial extent (au):  <R**2>=             33.9377
 Charge=             -0.0000 electrons
 Dipole moment (field-independent basis, Debye):
    X=             -1.2625    Y=              0.0000    Z=              0.0000  Tot=              1.2625
 Quadrupole moment (field-independent basis, Debye-Ang):
   XX=            -10.2117   YY=            -13.9507   ZZ=            -13.9507
   XY=              0.0000   XZ=             -0.0000   YZ=             -0.0000
 Traceless Quadrupole moment (field-independent basis, Debye-Ang):
   XX=              2.4927   YY=             -1.2464   ZZ=             -1.2464
   XY=              0.0000   XZ=             -0.0000   YZ=             -0.0000
 Octapole moment (field-independent basis, Debye-Ang**2):
  XXX=             -1.8500  YYY=              0.0000  ZZZ=              0.0000  XYY=              0.2320
  XXY=              0.0000  XXZ=              0.0000  XZZ=              0.2320  YZZ=              0.0000
  YYZ=              0.0000  XYZ=             -0.0000
 Hexadecapole moment (field-independent basis, Debye-Ang**3):
 XXXX=            -13.0981 YYYY=            -15.8952 ZZZZ=            -15.8952 XXXY=             -0.0000
 XXXZ=             -0.0000 YYYX=             -0.0000 YYYZ=             -0.0000 ZZZX=              0.0000
 ZZZY=             -0.0000 XXYY=             -5.6118 XXZZ=             -5.6118 YYZZ=             -5.2982
 XXYZ=             -0.0000 YYXZ=             -0.0000 ZZXY=             -0.0000
 N-N= 7.017422298803D+00 E-N=-1.110303889913D+03  KE= 4.603233888376D+02
 Orbital energies and kinetic energies (alpha):
                                 1                 2
   1         O              -102.618297        137.010061
   2         O                -9.773200         21.557535
   3         O                -7.521379         20.651983
   4         O                -7.516154         20.694098
   5         O                -7.516154         20.694098
   6         O                -0.937996          2.897806
   7         O                -0.537349          2.025365
   8         O                -0.398709          2.315375
   9         O                -0.398709          2.315375
  10         V                 0.028834          1.001243
  11         V                 0.203684          0.942365
  12         V                 0.379812          1.643378
  13         V                 0.379812          1.643378
  14         V                 0.385910          1.887833
  15         V                 0.438698          1.479851
  16         V                 0.438698          1.479851
  17         V                 0.478550          1.513687
  18         V                 0.478856          1.513249
  19         V                 0.661629          2.924657
  20         V                 0.777096          2.623334
  21         V                 1.511392          2.587152
  22         V                 1.511392          2.587152
  23         V                 1.725419          3.565629
  24         V                 1.792682          4.592511
  25         V                 1.792682          4.592511
  26         V                 1.794620          4.838148
  27         V                 1.794804          4.837736
  28         V                 1.941119          4.269583
  29         V                 2.114149          3.176784
  30         V                 2.114810          3.176810
  31         V                 2.141736          3.177001
  32         V                 2.141736          3.177001
  33         V                 2.201162          6.502614
  34         V                 2.211328          6.820336
  35         V                 2.211328          6.820336
  36         V                 2.496721          3.691013
  37         V                 2.496721          3.691013
  38         V                 2.520774          4.369080
  39         V                 3.291995          4.995878
  40         V                10.748655         33.646897
  41         V                10.748655         33.646897
  42         V                10.825077         33.768433
  43         V                24.584821         43.836089
 Total kinetic energy from orbitals= 4.603233888376D+02
   1 Symmetry operations used in ECPInt.
 ECPInt:  NShTT=     153 NPrTT=     600 LenC2=     154 LenP2D=     587.
 LDataN:  DoStor=T MaxTD1= 7 Len=  274
 Calling FoFJK, ICntrl=      2127 FMM=F ISym2X=0 I1Cent= 0 IOpClX= 0 NMat=1 NMatS=1 NMatT=0.
 -------------------------------------------------------------------
 Center     Atomic                   Forces (Hartrees/Bohr)
 Number     Number              X              Y              Z
 -------------------------------------------------------------------
      1       17          -0.002288189   -0.000000000    0.000000000
      2        1           0.002288189    0.000000000   -0.000000000
 -------------------------------------------------------------------
 Cartesian Forces:  Max     0.002288189 RMS     0.001321086

 GradGradGradGradGradGradGradGradGradGradGradGradGradGradGradGradGradGrad
 Berny optimization.
 FormGI is forming the generalized inverse of G from B-inverse, IUseBI=4.
 Internal  Forces:  Max     0.002288189 RMS     0.002288189
 Search for a local minimum.
 Step number   1 out of a maximum of  100
 All quantities printed in internal units (Hartrees-Bohrs-Radians)
 Mixed Optimization -- RFO/linear search
 Second derivative matrix not updated -- first step.
 The second derivative matrix:
                          R1
           R1           0.31669
 ITU=  0
     Eigenvalues ---    0.31669
 RFO step:  Lambda=-1.65321901D-05 EMin= 3.16687335D-01
 Linear search not attempted -- first point.
 Iteration  1 RMS(Cart)=  0.00510885 RMS(Int)=  0.00000000
 Iteration  2 RMS(Cart)=  0.00000000 RMS(Int)=  0.00000000
 Variable       Old X    -DE/DX   Delta X   Delta X   Delta X     New X
                                 (Linear)    (Quad)   (Total)
    R1        2.42254  -0.00229   0.00000  -0.00723  -0.00723   2.41532
         Item               Value     Threshold  Converged?
 Maximum Force            0.002288     0.000015     NO 
 RMS     Force            0.002288     0.000010     NO 
 Maximum Displacement     0.003613     0.000060     NO 
 RMS     Displacement     0.005109     0.000040     NO 
 Predicted change in Energy=-8.266527D-06
 GradGradGradGradGradGradGradGradGradGradGradGradGradGradGradGradGradGrad

                          Input orientation:                          
 ---------------------------------------------------------------------
 Center     Atomic      Atomic             Coordinates (Angstroms)
 Number     Number       Type             X           Y           Z
 ---------------------------------------------------------------------
      1         17           0        0.039065    0.000000    0.000000
      2          1           0       -1.239065    0.000000    0.000000
 ---------------------------------------------------------------------
 Symmetry turned off by external request.
 Stoichiometry    ClH
 Framework group  C*V[C*(HCl)]
 Deg. of freedom     1
 Full point group                 C*V     NOp   4
 Rotational constants (GHZ):           0.0000000         315.8066010         315.8066010
 Standard basis: def2TZVP (5D, 7F)
    43 basis functions,    77 primitive gaussians,    48 cartesian basis functions
     9 alpha electrons        9 beta electrons
       nuclear repulsion energy         7.0384137273 Hartrees.
 NAtoms=    2 NActive=    2 NUniq=    2 SFac= 1.00D+00 NAtFMM=   60 NAOKFM=F Big=F
 Integral buffers will be    131072 words long.
 Raffenetti 2 integral format.
 Two-electron integral symmetry is turned off.
 One-electron integrals computed using PRISM.
   1 Symmetry operations used in ECPInt.
 ECPInt:  NShTT=     153 NPrTT=     600 LenC2=     154 LenP2D=     587.
 LDataN:  DoStor=T MaxTD1= 6 Len=  172
 NBasis=    43 RedAO= T EigKep=  1.84D-02  NBF=    43
 NBsUse=    43 1.00D-06 EigRej= -1.00D+00 NBFU=    43
 Initial guess from the checkpoint file:  "HCl_M08HX_def2tzvp.chk"
 B after Tr=    -0.003211    0.000000    0.000000
         Rot=    1.000000    0.000000    0.000000    0.000000 Ang=   0.00 deg.
 Keep R1 ints in memory in canonical form, NReq=21316819.
 Requested convergence on RMS density matrix=1.00D-08 within 128 cycles.
 Requested convergence on MAX density matrix=1.00D-06.
 Requested convergence on             energy=1.00D-06.
 No special actions if energy rises.
 SCF Done:  E(RM08HX) =  -460.800351699     A.U. after    7 cycles
            NFock=  7  Conv=0.47D-08     -V/T= 2.0010
   1 Symmetry operations used in ECPInt.
 ECPInt:  NShTT=     153 NPrTT=     600 LenC2=     154 LenP2D=     587.
 LDataN:  DoStor=T MaxTD1= 7 Len=  274
 Calling FoFJK, ICntrl=      2127 FMM=F ISym2X=0 I1Cent= 0 IOpClX= 0 NMat=1 NMatS=1 NMatT=0.
 -------------------------------------------------------------------
 Center     Atomic                   Forces (Hartrees/Bohr)
 Number     Number              X              Y              Z
 -------------------------------------------------------------------
      1       17           0.000225877    0.000000000    0.000000000
      2        1          -0.000225877   -0.000000000   -0.000000000
 -------------------------------------------------------------------
 Cartesian Forces:  Max     0.000225877 RMS     0.000130410

 GradGradGradGradGradGradGradGradGradGradGradGradGradGradGradGradGradGrad
 Berny optimization.
 Using GEDIIS/GDIIS optimizer.
 Internal  Forces:  Max     0.000225877 RMS     0.000225877
 Search for a local minimum.
 Step number   2 out of a maximum of  100
 All quantities printed in internal units (Hartrees-Bohrs-Radians)
 Mixed Optimization -- En-DIIS/RFO-DIIS
 Update second derivatives using D2CorX and points    1    2
 DE= -7.48D-06 DEPred=-8.27D-06 R= 9.04D-01
 TightC=F SS=  1.41D+00  RLast= 7.23D-03 DXNew= 5.0454D-01 2.1675D-02
 Trust test= 9.04D-01 RLast= 7.23D-03 DXMaxT set to 3.00D-01
 The second derivative matrix:
                          R1
           R1           0.34797
 ITU=  1  0
 Use linear search instead of GDIIS.
     Eigenvalues ---    0.34797
 RFO step:  Lambda= 0.00000000D+00 EMin= 3.47967135D-01
 Quartic linear search produced a step of -0.08918.
 Iteration  1 RMS(Cart)=  0.00045558 RMS(Int)=  0.00000000
 Iteration  2 RMS(Cart)=  0.00000000 RMS(Int)=  0.00000000
 Variable       Old X    -DE/DX   Delta X   Delta X   Delta X     New X
                                 (Linear)    (Quad)   (Total)
    R1        2.41532   0.00023   0.00064   0.00000   0.00064   2.41596
         Item               Value     Threshold  Converged?
 Maximum Force            0.000226     0.000015     NO 
 RMS     Force            0.000226     0.000010     NO 
 Maximum Displacement     0.000322     0.000060     NO 
 RMS     Displacement     0.000456     0.000040     NO 
 Predicted change in Energy=-7.330834D-08
 GradGradGradGradGradGradGradGradGradGradGradGradGradGradGradGradGradGrad

                          Input orientation:                          
 ---------------------------------------------------------------------
 Center     Atomic      Atomic             Coordinates (Angstroms)
 Number     Number       Type             X           Y           Z
 ---------------------------------------------------------------------
      1         17           0        0.039236    0.000000    0.000000
      2          1           0       -1.239236    0.000000    0.000000
 ---------------------------------------------------------------------
 Symmetry turned off by external request.
 Stoichiometry    ClH
 Framework group  C*V[C*(HCl)]
 Deg. of freedom     1
 Full point group                 C*V     NOp   4
 Rotational constants (GHZ):           0.0000000         315.6381838         315.6381838
 Standard basis: def2TZVP (5D, 7F)
    43 basis functions,    77 primitive gaussians,    48 cartesian basis functions
     9 alpha electrons        9 beta electrons
       nuclear repulsion energy         7.0365367116 Hartrees.
 NAtoms=    2 NActive=    2 NUniq=    2 SFac= 1.00D+00 NAtFMM=   60 NAOKFM=F Big=F
 Integral buffers will be    131072 words long.
 Raffenetti 2 integral format.
 Two-electron integral symmetry is turned off.
 One-electron integrals computed using PRISM.
   1 Symmetry operations used in ECPInt.
 ECPInt:  NShTT=     153 NPrTT=     600 LenC2=     154 LenP2D=     587.
 LDataN:  DoStor=T MaxTD1= 6 Len=  172
 NBasis=    43 RedAO= T EigKep=  1.84D-02  NBF=    43
 NBsUse=    43 1.00D-06 EigRej= -1.00D+00 NBFU=    43
 Initial guess from the checkpoint file:  "HCl_M08HX_def2tzvp.chk"
 B after Tr=     0.000286    0.000000    0.000000
         Rot=    1.000000    0.000000    0.000000    0.000000 Ang=   0.00 deg.
 Keep R1 ints in memory in canonical form, NReq=21316819.
 Requested convergence on RMS density matrix=1.00D-08 within 128 cycles.
 Requested convergence on MAX density matrix=1.00D-06.
 Requested convergence on             energy=1.00D-06.
 No special actions if energy rises.
 SCF Done:  E(RM08HX) =  -460.800351772     A.U. after    6 cycles
            NFock=  6  Conv=0.28D-08     -V/T= 2.0010
   1 Symmetry operations used in ECPInt.
 ECPInt:  NShTT=     153 NPrTT=     600 LenC2=     154 LenP2D=     587.
 LDataN:  DoStor=T MaxTD1= 7 Len=  274
 Calling FoFJK, ICntrl=      2127 FMM=F ISym2X=0 I1Cent= 0 IOpClX= 0 NMat=1 NMatS=1 NMatT=0.
 -------------------------------------------------------------------
 Center     Atomic                   Forces (Hartrees/Bohr)
 Number     Number              X              Y              Z
 -------------------------------------------------------------------
      1       17           0.000000055    0.000000000    0.000000000
      2        1          -0.000000055   -0.000000000   -0.000000000
 -------------------------------------------------------------------
 Cartesian Forces:  Max     0.000000055 RMS     0.000000032

 GradGradGradGradGradGradGradGradGradGradGradGradGradGradGradGradGradGrad
 Berny optimization.
 Using GEDIIS/GDIIS optimizer.
 Internal  Forces:  Max     0.000000055 RMS     0.000000055
 Search for a local minimum.
 Step number   3 out of a maximum of  100
 All quantities printed in internal units (Hartrees-Bohrs-Radians)
 Mixed Optimization -- En-DIIS/RFO-DIIS
 Swapping is turned off.
 Update second derivatives using D2CorX and points    2    3
 DE= -7.28D-08 DEPred=-7.33D-08 R= 9.93D-01
 Trust test= 9.93D-01 RLast= 6.44D-04 DXMaxT set to 3.00D-01
 The second derivative matrix:
                          R1
           R1           0.35050
 ITU=  0  1
     Eigenvalues ---    0.35050
 En-DIIS/RFO-DIIS/Sim-DIIS IScMMF=       -3 using points:     3    2
 RFO step:  Lambda=-8.54871729D-15.
 DidBck=F Rises=F RFO-DIIS coefs:    1.00024   -0.00024
 Iteration  1 RMS(Cart)=  0.00000011 RMS(Int)=  0.00000000
 Variable       Old X    -DE/DX   Delta X   Delta X   Delta X     New X
                                 (Linear)    (Quad)   (Total)
    R1        2.41596   0.00000   0.00000  -0.00000   0.00000   2.41596
         Item               Value     Threshold  Converged?
 Maximum Force            0.000000     0.000015     YES
 RMS     Force            0.000000     0.000010     YES
 Maximum Displacement     0.000000     0.000060     YES
 RMS     Displacement     0.000000     0.000040     YES
 Predicted change in Energy=-4.268628D-15
 Optimization completed.
    -- Stationary point found.
                           ----------------------------
                           !   Optimized Parameters   !
                           ! (Angstroms and Degrees)  !
 --------------------------                            --------------------------
 ! Name  Definition              Value          Derivative Info.                !
 --------------------------------------------------------------------------------
 ! R1    R(1,2)                  1.2785         -DE/DX =    0.0                 !
 --------------------------------------------------------------------------------
 GradGradGradGradGradGradGradGradGradGradGradGradGradGradGradGradGradGrad

                          Input orientation:                          
 ---------------------------------------------------------------------
 Center     Atomic      Atomic             Coordinates (Angstroms)
 Number     Number       Type             X           Y           Z
 ---------------------------------------------------------------------
      1         17           0        0.039236    0.000000    0.000000
      2          1           0       -1.239236    0.000000    0.000000
 ---------------------------------------------------------------------
 Symmetry turned off by external request.
 Stoichiometry    ClH
 Framework group  C*V[C*(HCl)]
 Deg. of freedom     1
 Full point group                 C*V     NOp   4
 Rotational constants (GHZ):           0.0000000         315.6381838         315.6381838

 **********************************************************************

            Population analysis using the SCF density.

 **********************************************************************

 Alpha  occ. eigenvalues -- -102.61812  -9.77310  -7.52128  -7.51605  -7.51605
 Alpha  occ. eigenvalues --   -0.93858  -0.53791  -0.39879  -0.39879
 Alpha virt. eigenvalues --    0.02958   0.20373   0.37979   0.37979   0.38597
 Alpha virt. eigenvalues --    0.43855   0.43855   0.47848   0.47879   0.66297
 Alpha virt. eigenvalues --    0.77733   1.51329   1.51329   1.72496   1.79215
 Alpha virt. eigenvalues --    1.79215   1.79459   1.79477   1.94082   2.11404
 Alpha virt. eigenvalues --    2.11468   2.14166   2.14166   2.20108   2.21126
 Alpha virt. eigenvalues --    2.21126   2.49968   2.49968   2.52440   3.29413
 Alpha virt. eigenvalues --   10.74876  10.74876  10.82451  24.59813
     Molecular Orbital Coefficients:
                           1         2         3         4         5
                           O         O         O         O         O
     Eigenvalues --  -102.61812  -9.77310  -7.52128  -7.51605  -7.51605
   1 1   Cl 1S          1.00045  -0.29494  -0.00137   0.00000   0.00000
   2        2S         -0.03426  -0.21220  -0.00121   0.00000  -0.00000
   3        3S         -0.01183   0.83568   0.00409  -0.00000  -0.00000
   4        4S          0.00389   0.02735  -0.00060   0.00000   0.00000
   5        5S         -0.00165  -0.00794   0.00055  -0.00000  -0.00000
   6        6PX        -0.00006  -0.00295   0.71088  -0.00000   0.00000
   7        6PY         0.00000   0.00000   0.00000   0.51660  -0.48983
   8        6PZ         0.00000  -0.00000   0.00000   0.48983   0.51660
   9        7PX        -0.00005  -0.00211   0.34228  -0.00000   0.00000
  10        7PY        -0.00000   0.00000   0.00000   0.24837  -0.23550
  11        7PZ        -0.00000  -0.00000   0.00000   0.23550   0.24837
  12        8PX         0.00035   0.00048   0.07454  -0.00000   0.00000
  13        8PY         0.00000  -0.00000   0.00000   0.05218  -0.04948
  14        8PZ         0.00000   0.00000   0.00000   0.04948   0.05218
  15        9PX        -0.00099  -0.00313  -0.01362   0.00000  -0.00000
  16        9PY        -0.00000   0.00000  -0.00000  -0.00808   0.00766
  17        9PZ        -0.00000  -0.00000  -0.00000  -0.00766  -0.00808
  18       10PX         0.00039   0.00181   0.00385   0.00000   0.00000
  19       10PY         0.00000  -0.00000   0.00000   0.00249  -0.00236
  20       10PZ         0.00000  -0.00000   0.00000   0.00236   0.00249
  21       11D 0       -0.00004  -0.00056   0.00043  -0.00000  -0.00000
  22       11D+1       -0.00000  -0.00000   0.00000  -0.00063  -0.00066
  23       11D-1        0.00000  -0.00000  -0.00000   0.00000   0.00000
  24       11D+2        0.00006   0.00098  -0.00074  -0.00000  -0.00000
  25       11D-2       -0.00000   0.00000  -0.00000  -0.00066   0.00063
  26       12D 0       -0.00019  -0.00029  -0.00072  -0.00000   0.00000
  27       12D+1        0.00000   0.00000  -0.00000   0.00040   0.00042
  28       12D-1       -0.00000   0.00000   0.00000   0.00000  -0.00000
  29       12D+2        0.00032   0.00051   0.00125  -0.00000   0.00000
  30       12D-2       -0.00000  -0.00000   0.00000   0.00042  -0.00040
  31       13F 0        0.00000   0.00000   0.00000  -0.00002  -0.00002
  32       13F+1        0.00014   0.00049   0.00014  -0.00000   0.00000
  33       13F-1       -0.00000   0.00000   0.00000  -0.00001   0.00001
  34       13F+2       -0.00000  -0.00000  -0.00000   0.00003   0.00003
  35       13F-2        0.00000   0.00000  -0.00000   0.00000  -0.00000
  36       13F+3       -0.00018  -0.00063  -0.00018   0.00000   0.00000
  37       13F-3        0.00000  -0.00000  -0.00000   0.00003  -0.00003
  38 2   H  1S          0.00000   0.00016  -0.00080   0.00000   0.00000
  39        2S         -0.00095  -0.00272  -0.00268   0.00000  -0.00000
  40        3S          0.00078   0.00320   0.00175   0.00000   0.00000
  41        4PX        -0.00063  -0.00196  -0.00081   0.00000  -0.00000
  42        4PY         0.00000  -0.00000   0.00000   0.00023  -0.00022
  43        4PZ         0.00000   0.00000   0.00000   0.00022   0.00023
                           6         7         8         9        10
                           O         O         O         O         V
     Eigenvalues --    -0.93858  -0.53791  -0.39879  -0.39879   0.02958
   1 1   Cl 1S          0.08588   0.02655  -0.00000   0.00000  -0.02321
   2        2S          0.07188   0.02311  -0.00000   0.00000  -0.02441
   3        3S         -0.48612  -0.15482   0.00000  -0.00000   0.13584
   4        4S          0.65138   0.21064  -0.00000   0.00000  -0.09048
   5        5S          0.44528   0.24771  -0.00000   0.00000  -0.94690
   6        6PX         0.02744  -0.16907   0.00000  -0.00000  -0.09409
   7        6PY         0.00000  -0.00000  -0.17579   0.10918  -0.00000
   8        6PZ        -0.00000   0.00000  -0.10918  -0.17579   0.00000
   9        7PX         0.01438  -0.08273   0.00000  -0.00000  -0.04920
  10        7PY        -0.00000  -0.00000  -0.08474   0.05263   0.00000
  11        7PZ         0.00000   0.00000  -0.05263  -0.08474  -0.00000
  12        8PX        -0.03200   0.20877  -0.00000   0.00000   0.14231
  13        8PY         0.00000   0.00000   0.22334  -0.13871  -0.00000
  14        8PZ        -0.00000  -0.00000   0.13871   0.22334   0.00000
  15        9PX        -0.05952   0.41751   0.00000   0.00000   0.20630
  16        9PY         0.00000   0.00000   0.45902  -0.28509  -0.00000
  17        9PZ         0.00000  -0.00000   0.28509   0.45902   0.00000
  18       10PX        -0.01528   0.18995  -0.00000   0.00000   0.76763
  19       10PY         0.00000   0.00000   0.31182  -0.19366   0.00000
  20       10PZ        -0.00000  -0.00000   0.19366   0.31182  -0.00000
  21       11D 0       -0.00965   0.02257   0.00000   0.00000  -0.02337
  22       11D+1       -0.00000  -0.00000  -0.00294  -0.00473  -0.00000
  23       11D-1        0.00000   0.00000  -0.00000   0.00000  -0.00000
  24       11D+2        0.01672  -0.03909   0.00000   0.00000   0.04048
  25       11D-2        0.00000   0.00000  -0.00473   0.00294   0.00000
  26       12D 0       -0.00817   0.01909  -0.00000  -0.00000  -0.01987
  27       12D+1        0.00000  -0.00000  -0.01074  -0.01730  -0.00000
  28       12D-1        0.00000   0.00000  -0.00000   0.00000   0.00000
  29       12D+2        0.01415  -0.03306  -0.00000  -0.00000   0.03441
  30       12D-2       -0.00000   0.00000  -0.01730   0.01074   0.00000
  31       13F 0       -0.00000  -0.00000  -0.00257  -0.00413   0.00000
  32       13F+1        0.00480  -0.00868   0.00000  -0.00000  -0.00039
  33       13F-1       -0.00000   0.00000  -0.00177   0.00110  -0.00000
  34       13F+2       -0.00000  -0.00000   0.00338   0.00544  -0.00000
  35       13F-2        0.00000   0.00000   0.00000   0.00000  -0.00000
  36       13F+3       -0.00620   0.01121   0.00000   0.00000   0.00051
  37       13F-3        0.00000   0.00000   0.00660  -0.00410   0.00000
  38 2   H  1S          0.09027  -0.15702   0.00000  -0.00000   0.10186
  39        2S          0.09507  -0.25646   0.00000  -0.00000   0.11806
  40        3S          0.00632  -0.05976   0.00000   0.00000   1.55508
  41        4PX         0.01614  -0.01694   0.00000  -0.00000  -0.01533
  42        4PY        -0.00000   0.00000   0.01576  -0.00979  -0.00000
  43        4PZ        -0.00000  -0.00000   0.00979   0.01576  -0.00000
                          11        12        13        14        15
                           V         V         V         V         V
     Eigenvalues --     0.20373   0.37979   0.37979   0.38597   0.43855
   1 1   Cl 1S         -0.00412  -0.00000   0.00000  -0.02022   0.00000
   2        2S         -0.00364   0.00000   0.00000  -0.01331   0.00000
   3        3S          0.02448   0.00000  -0.00000   0.12887  -0.00000
   4        4S          0.02254  -0.00000   0.00000  -0.31849   0.00000
   5        5S         -0.07010   0.00000  -0.00000  -0.12733  -0.00000
   6        6PX        -0.03841  -0.00000  -0.00000   0.16231  -0.00000
   7        6PY        -0.00000   0.14520  -0.06505  -0.00000  -0.00030
   8        6PZ         0.00000   0.06505   0.14520   0.00000   0.00044
   9        7PX        -0.01543  -0.00000  -0.00000   0.03122  -0.00000
  10        7PY         0.00000   0.02776  -0.01244   0.00000   0.00253
  11        7PZ        -0.00000   0.01244   0.02776   0.00000  -0.00373
  12        8PX         0.03409   0.00000   0.00000  -0.03779   0.00000
  13        8PY        -0.00000  -0.03634   0.01628  -0.00000  -0.01012
  14        8PZ         0.00000  -0.01628  -0.03634  -0.00000   0.01491
  15        9PX         0.15542   0.00000   0.00000  -1.18324   0.00000
  16        9PY         0.00000  -1.04360   0.46754   0.00000   0.03225
  17        9PZ        -0.00000  -0.46754  -1.04360  -0.00000  -0.04751
  18       10PX         0.50516  -0.00000  -0.00000   1.64094  -0.00000
  19       10PY         0.00000   1.24992  -0.55997  -0.00000  -0.06402
  20       10PZ        -0.00000   0.55997   1.24992   0.00000   0.09434
  21       11D 0       -0.07702   0.00000   0.00000   0.00490   0.00000
  22       11D+1       -0.00000  -0.00219  -0.00489   0.00000   0.19549
  23       11D-1        0.00000   0.00000  -0.00000  -0.00000   0.00000
  24       11D+2        0.13341   0.00000   0.00000  -0.00849   0.00000
  25       11D-2        0.00000  -0.00489   0.00219  -0.00000  -0.13267
  26       12D 0       -0.07413   0.00000   0.00000   0.07327   0.00000
  27       12D+1       -0.00000  -0.02369  -0.05289   0.00000   0.66663
  28       12D-1       -0.00000  -0.00000  -0.00000   0.00000   0.00000
  29       12D+2        0.12840   0.00000   0.00000  -0.12691   0.00000
  30       12D-2        0.00000  -0.05289   0.02369  -0.00000  -0.45241
  31       13F 0        0.00000   0.00033   0.00074  -0.00000   0.00873
  32       13F+1       -0.00929   0.00000   0.00000  -0.00156  -0.00000
  33       13F-1       -0.00000   0.00038  -0.00017   0.00000  -0.00250
  34       13F+2       -0.00000  -0.00047  -0.00105   0.00000  -0.01142
  35       13F-2        0.00000   0.00000  -0.00000  -0.00000   0.00000
  36       13F+3        0.01199  -0.00000  -0.00000   0.00202   0.00000
  37       13F-3        0.00000  -0.00123   0.00055  -0.00000   0.00943
  38 2   H  1S          0.11658   0.00000   0.00000  -0.05426   0.00000
  39        2S          1.23477  -0.00000   0.00000  -0.10009   0.00000
  40        3S         -1.02522  -0.00000  -0.00000   0.79200  -0.00000
  41        4PX         0.03748  -0.00000  -0.00000   0.02022   0.00000
  42        4PY        -0.00000   0.00136  -0.00061   0.00000   0.05076
  43        4PZ         0.00000   0.00061   0.00136  -0.00000  -0.07479
                          16        17        18        19        20
                           V         V         V         V         V
     Eigenvalues --     0.43855   0.47848   0.47879   0.66297   0.77733
   1 1   Cl 1S         -0.00000  -0.00000  -0.00000  -0.06974  -0.06491
   2        2S         -0.00000  -0.00000  -0.00000  -0.03502  -0.02867
   3        3S          0.00000   0.00000   0.00000   0.46246   0.43946
   4        4S         -0.00000   0.00000  -0.00000  -1.59314  -1.90592
   5        5S          0.00000  -0.00000   0.00000   1.62993   2.80164
   6        6PX         0.00000  -0.00000  -0.00000  -0.06270  -0.00184
   7        6PY         0.00044  -0.00000  -0.00000  -0.00000  -0.00000
   8        6PZ         0.00030  -0.00000   0.00000   0.00000   0.00000
   9        7PX         0.00000   0.00000  -0.00000  -0.03060  -0.02019
  10        7PY        -0.00373  -0.00000  -0.00000   0.00000  -0.00000
  11        7PZ        -0.00253  -0.00000   0.00000  -0.00000  -0.00000
  12        8PX         0.00000  -0.00000   0.00000   0.09649   0.10899
  13        8PY         0.01491   0.00000   0.00000  -0.00000   0.00000
  14        8PZ         0.01012   0.00000   0.00000   0.00000   0.00000
  15        9PX        -0.00000   0.00000   0.00000   0.32599  -0.26419
  16        9PY        -0.04751   0.00000  -0.00000   0.00000   0.00000
  17        9PZ        -0.03225   0.00000  -0.00000  -0.00000  -0.00000
  18       10PX         0.00000   0.00000   0.00000  -0.29780  -1.25513
  19       10PY         0.09434  -0.00000   0.00000  -0.00000  -0.00000
  20       10PZ         0.06402  -0.00000   0.00000   0.00000   0.00000
  21       11D 0       -0.00000   0.21248   0.00000   0.08835  -0.09459
  22       11D+1        0.13267  -0.00000   0.00000   0.00000  -0.00000
  23       11D-1       -0.00000  -0.00000   0.24513  -0.00000   0.00000
  24       11D+2       -0.00000   0.12268   0.00000  -0.15303   0.16383
  25       11D-2        0.19549   0.00000   0.00000  -0.00000  -0.00000
  26       12D 0       -0.00000   0.72679   0.00000   0.30194  -0.52298
  27       12D+1        0.45241  -0.00000  -0.00000   0.00000   0.00000
  28       12D-1       -0.00000  -0.00000   0.83940   0.00000  -0.00000
  29       12D+2       -0.00000   0.41961   0.00000  -0.52298   0.90584
  30       12D-2        0.66663   0.00000   0.00000  -0.00000  -0.00000
  31       13F 0        0.00592  -0.00000   0.00000  -0.00000   0.00000
  32       13F+1       -0.00000  -0.00743  -0.00000   0.00945   0.04322
  33       13F-1        0.00368   0.00000  -0.00000  -0.00000  -0.00000
  34       13F+2       -0.00775   0.00000  -0.00000   0.00000  -0.00000
  35       13F-2       -0.00000   0.00000  -0.00911   0.00000  -0.00000
  36       13F+3       -0.00000  -0.00576  -0.00000  -0.01220  -0.05579
  37       13F-3       -0.01389  -0.00000   0.00000   0.00000   0.00000
  38 2   H  1S          0.00000  -0.00000   0.00000   0.06001   0.05103
  39        2S         -0.00000   0.00000   0.00000   1.03418  -1.84013
  40        3S          0.00000  -0.00000  -0.00000  -1.20894  -0.48946
  41        4PX        -0.00000   0.00000   0.00000  -0.09217  -0.19727
  42        4PY        -0.07479  -0.00000   0.00000  -0.00000  -0.00000
  43        4PZ        -0.05076   0.00000   0.00000  -0.00000  -0.00000
                          21        22        23        24        25
                           V         V         V         V         V
     Eigenvalues --     1.51329   1.51329   1.72496   1.79215   1.79215
   1 1   Cl 1S          0.00000  -0.00000   0.00266  -0.00000  -0.00000
   2        2S          0.00000  -0.00000   0.00469  -0.00000  -0.00000
   3        3S         -0.00000   0.00000  -0.01421   0.00000   0.00000
   4        4S          0.00000  -0.00000  -0.21874  -0.00000   0.00000
   5        5S          0.00000  -0.00000   0.78846   0.00000  -0.00000
   6        6PX         0.00000  -0.00000   0.05138   0.00000   0.00000
   7        6PY        -0.02229   0.02850  -0.00000  -0.00212   0.00151
   8        6PZ         0.02850   0.02229  -0.00000  -0.00151  -0.00212
   9        7PX         0.00000   0.00000   0.01051   0.00000   0.00000
  10        7PY        -0.01910   0.02443  -0.00000   0.00278  -0.00198
  11        7PZ         0.02443   0.01910   0.00000   0.00198   0.00278
  12        8PX        -0.00000  -0.00000  -0.02925  -0.00000  -0.00000
  13        8PY         0.08443  -0.10798   0.00000  -0.01428   0.01015
  14        8PZ        -0.10798  -0.08443  -0.00000  -0.01015  -0.01428
  15        9PX        -0.00000   0.00000  -0.34733   0.00000   0.00000
  16        9PY        -0.03453   0.04416  -0.00000   0.03806  -0.02705
  17        9PZ         0.04416   0.03453   0.00000   0.02705   0.03806
  18       10PX        -0.00000   0.00000  -0.31895  -0.00000   0.00000
  19       10PY         0.11414  -0.14598   0.00000   0.01495  -0.01062
  20       10PZ        -0.14598  -0.11414  -0.00000   0.01062   0.01495
  21       11D 0        0.00000  -0.00000   0.38025   0.00000  -0.00000
  22       11D+1        0.25515   0.19950   0.00000   0.65932   0.92787
  23       11D-1       -0.00000   0.00000   0.00000   0.00000   0.00000
  24       11D+2       -0.00000  -0.00000  -0.65861   0.00000  -0.00000
  25       11D-2       -0.19950   0.25515  -0.00000   0.92787  -0.65932
  26       12D 0       -0.00000   0.00000  -0.53519  -0.00000   0.00000
  27       12D+1        0.13977   0.10929  -0.00000  -0.54661  -0.76926
  28       12D-1        0.00000  -0.00000  -0.00000  -0.00000  -0.00000
  29       12D+2        0.00000  -0.00000   0.92698  -0.00000   0.00000
  30       12D-2       -0.10929   0.13977   0.00000  -0.76926   0.54661
  31       13F 0       -0.14433  -0.11285   0.00000   0.08057   0.11339
  32       13F+1       -0.00000  -0.00000  -0.21881   0.00000  -0.00000
  33       13F-1        0.04597  -0.05880  -0.00000   0.04698  -0.03338
  34       13F+2        0.18617   0.14556  -0.00000  -0.10463  -0.14725
  35       13F-2        0.00000  -0.00000  -0.00000   0.00000   0.00000
  36       13F+3       -0.00000  -0.00000   0.28248   0.00000  -0.00000
  37       13F-3       -0.17835   0.22811   0.00000  -0.17981   0.12777
  38 2   H  1S          0.00000  -0.00000  -0.53029  -0.00000   0.00000
  39        2S         -0.00000   0.00000  -0.14881   0.00000   0.00000
  40        3S          0.00000  -0.00000  -0.44282  -0.00000   0.00000
  41        4PX        -0.00000   0.00000  -0.50826   0.00000   0.00000
  42        4PY        -0.53879   0.68908   0.00000  -0.18954   0.13468
  43        4PZ         0.68908   0.53879  -0.00000  -0.13468  -0.18954
                          26        27        28        29        30
                           V         V         V         V         V
     Eigenvalues --     1.79459   1.79477   1.94082   2.11404   2.11468
   1 1   Cl 1S         -0.00000   0.00000  -0.00575  -0.00000  -0.00000
   2        2S         -0.00000  -0.00000   0.00021  -0.00000  -0.00000
   3        3S          0.00000  -0.00000   0.04153   0.00000   0.00000
   4        4S          0.00000   0.00000   0.08331  -0.00000  -0.00000
   5        5S         -0.00000  -0.00000  -0.79701   0.00000  -0.00000
   6        6PX        -0.00000  -0.00000   0.04038  -0.00000  -0.00000
   7        6PY         0.00000   0.00000   0.00000  -0.00000   0.00000
   8        6PZ         0.00000  -0.00000   0.00000  -0.00000   0.00000
   9        7PX         0.00000  -0.00000   0.07123  -0.00000  -0.00000
  10        7PY         0.00000  -0.00000   0.00000  -0.00000   0.00000
  11        7PZ        -0.00000  -0.00000   0.00000  -0.00000   0.00000
  12        8PX        -0.00000   0.00000  -0.39881   0.00000   0.00000
  13        8PY        -0.00000   0.00000  -0.00000   0.00000  -0.00000
  14        8PZ         0.00000   0.00000  -0.00000   0.00000  -0.00000
  15        9PX         0.00000   0.00000   0.87195  -0.00000  -0.00000
  16        9PY         0.00000  -0.00000   0.00000  -0.00000   0.00000
  17        9PZ        -0.00000   0.00000   0.00000  -0.00000   0.00000
  18       10PX         0.00000   0.00000   0.45784   0.00000   0.00000
  19       10PY         0.00000  -0.00000  -0.00000   0.00000  -0.00000
  20       10PZ        -0.00000   0.00000  -0.00000   0.00000  -0.00000
  21       11D 0       -0.00000   1.03385  -0.41790  -0.00605  -0.00000
  22       11D+1       -0.00000   0.00000  -0.00000   0.00000  -0.00000
  23       11D-1        1.19382   0.00000  -0.00000   0.00000  -0.00909
  24       11D+2       -0.00000   0.59689   0.72383  -0.00349  -0.00000
  25       11D-2        0.00000  -0.00000  -0.00000   0.00000   0.00000
  26       12D 0        0.00000  -0.76527   0.62038   0.01279   0.00000
  27       12D+1        0.00000  -0.00000   0.00000  -0.00000   0.00000
  28       12D-1       -0.88347  -0.00000   0.00000  -0.00000   0.01603
  29       12D+2        0.00000  -0.44183  -1.07453   0.00738   0.00000
  30       12D-2       -0.00000   0.00000   0.00000  -0.00000   0.00000
  31       13F 0       -0.00000   0.00000  -0.00000   0.00000  -0.00000
  32       13F+1       -0.00000   0.00615  -0.29414   0.79051   0.00000
  33       13F-1        0.00000  -0.00000   0.00000  -0.00000  -0.00000
  34       13F+2        0.00000  -0.00000  -0.00000   0.00000  -0.00000
  35       13F-2        0.00948   0.00000  -0.00000  -0.00000   0.99991
  36       13F+3       -0.00000   0.00476   0.37973   0.61233   0.00000
  37       13F-3       -0.00000   0.00000  -0.00000   0.00000  -0.00000
  38 2   H  1S         -0.00000   0.00000  -0.88681   0.00000  -0.00000
  39        2S          0.00000  -0.00000   2.60379  -0.00000   0.00000
  40        3S         -0.00000   0.00000  -0.58664   0.00000   0.00000
  41        4PX         0.00000   0.00000   0.32902  -0.00000   0.00000
  42        4PY        -0.00000   0.00000  -0.00000   0.00000   0.00000
  43        4PZ         0.00000  -0.00000   0.00000  -0.00000   0.00000
                          31        32        33        34        35
                           V         V         V         V         V
     Eigenvalues --     2.14166   2.14166   2.20108   2.21126   2.21126
   1 1   Cl 1S          0.00000   0.00000  -0.00959  -0.00000   0.00000
   2        2S          0.00000   0.00000  -0.00811  -0.00000   0.00000
   3        3S         -0.00000  -0.00000   0.07047   0.00000  -0.00000
   4        4S          0.00000   0.00000  -0.30000  -0.00000   0.00000
   5        5S         -0.00000   0.00000   0.38325   0.00000  -0.00000
   6        6PX        -0.00000  -0.00000   0.28792   0.00000  -0.00000
   7        6PY        -0.00000  -0.00000  -0.00000   0.20501  -0.22792
   8        6PZ         0.00000  -0.00000  -0.00000  -0.22792  -0.20501
   9        7PX        -0.00000  -0.00000   0.39081   0.00000  -0.00000
  10        7PY         0.00001   0.00001  -0.00000   0.27006  -0.30023
  11        7PZ        -0.00001   0.00001  -0.00000  -0.30023  -0.27006
  12        8PX         0.00000   0.00000  -1.97323  -0.00000   0.00000
  13        8PY        -0.00005  -0.00007   0.00000  -1.35963   1.51154
  14        8PZ         0.00007  -0.00005   0.00000   1.51154   1.35963
  15        9PX        -0.00000  -0.00000   2.11705   0.00000  -0.00000
  16        9PY         0.00012   0.00015  -0.00000   1.34692  -1.49740
  17        9PZ        -0.00015   0.00012  -0.00000  -1.49740  -1.34692
  18       10PX         0.00000   0.00000  -0.91626  -0.00000   0.00000
  19       10PY        -0.00009  -0.00011   0.00000  -0.49575   0.55114
  20       10PZ         0.00011  -0.00009   0.00000   0.55114   0.49575
  21       11D 0       -0.00000  -0.00000   0.06310   0.00000  -0.00000
  22       11D+1        0.00070  -0.00054  -0.00000   0.04715   0.04241
  23       11D-1       -0.00000   0.00000   0.00000  -0.00000   0.00000
  24       11D+2        0.00000  -0.00000  -0.10929  -0.00000   0.00000
  25       11D-2       -0.00054  -0.00070   0.00000  -0.04241   0.04715
  26       12D 0        0.00000   0.00000  -0.02732  -0.00000   0.00000
  27       12D+1       -0.00052   0.00040   0.00000  -0.04149  -0.03732
  28       12D-1       -0.00000  -0.00000  -0.00000   0.00000  -0.00000
  29       12D+2       -0.00000   0.00000   0.04733   0.00000  -0.00000
  30       12D-2        0.00040   0.00052  -0.00000   0.03732  -0.04149
  31       13F 0        0.62383  -0.48542  -0.00000  -0.08842  -0.07953
  32       13F+1       -0.00000   0.00000   0.20067   0.00000  -0.00000
  33       13F-1        0.59464   0.76420   0.00000   0.03236  -0.03597
  34       13F+2        0.48342  -0.37616   0.00000   0.11399   0.10254
  35       13F-2        0.00000  -0.00000   0.00000   0.00000   0.00000
  36       13F+3       -0.00000   0.00000  -0.25906  -0.00000  -0.00000
  37       13F-3        0.15341   0.19715   0.00000  -0.12567   0.13971
  38 2   H  1S          0.00000   0.00000  -0.15847  -0.00000   0.00000
  39        2S         -0.00000  -0.00000   0.40384   0.00000  -0.00000
  40        3S          0.00000   0.00000  -0.49254  -0.00000   0.00000
  41        4PX        -0.00000  -0.00000   0.07156   0.00000  -0.00000
  42        4PY         0.00018   0.00024   0.00000   0.01147  -0.01275
  43        4PZ        -0.00024   0.00018   0.00000  -0.01275  -0.01147
                          36        37        38        39        40
                           V         V         V         V         V
     Eigenvalues --     2.49968   2.49968   2.52440   3.29413  10.74876
   1 1   Cl 1S          0.00000  -0.00000  -0.02478  -0.01611  -0.00000
   2        2S          0.00000  -0.00000  -0.02129  -0.03568   0.00000
   3        3S         -0.00000   0.00000   0.18331   0.11826   0.00000
   4        4S          0.00000  -0.00000  -0.29040   0.24248   0.00000
   5        5S          0.00000  -0.00000  -0.88329  -1.88698  -0.00000
   6        6PX         0.00000  -0.00000  -0.08956   0.06557  -0.00000
   7        6PY         0.03718   0.04010  -0.00000  -0.00000   0.09104
   8        6PZ        -0.04010   0.03718  -0.00000  -0.00000  -1.16987
   9        7PX         0.00000   0.00000  -0.04301   0.18844   0.00000
  10        7PY         0.05475   0.05905  -0.00000   0.00000  -0.17116
  11        7PZ        -0.05905   0.05475  -0.00000  -0.00000   2.19938
  12        8PX        -0.00000  -0.00000   0.13711  -1.17888  -0.00000
  13        8PY        -0.29012  -0.31289   0.00000   0.00000   0.14552
  14        8PZ         0.31289  -0.29012   0.00000   0.00000  -1.86982
  15        9PX        -0.00000   0.00000   0.99038   2.58814   0.00000
  16        9PY         0.32683   0.35248  -0.00000  -0.00000  -0.07570
  17        9PZ        -0.35248   0.32683  -0.00000  -0.00000   0.97272
  18       10PX        -0.00000   0.00000   0.34182   0.33360  -0.00000
  19       10PY        -0.02237  -0.02412   0.00000   0.00000   0.02248
  20       10PZ         0.02412  -0.02237   0.00000   0.00000  -0.28891
  21       11D 0       -0.00000   0.00000   0.24362   0.02595   0.00000
  22       11D+1       -0.15747   0.14601  -0.00000  -0.00000   0.00316
  23       11D-1       -0.00000   0.00000  -0.00000  -0.00000   0.00000
  24       11D+2        0.00000  -0.00000  -0.42196  -0.04494   0.00000
  25       11D-2        0.14601   0.15747  -0.00000  -0.00000  -0.00025
  26       12D 0       -0.00000   0.00000   0.23002   0.77616   0.00000
  27       12D+1        0.34613  -0.32094   0.00000   0.00000  -0.01288
  28       12D-1       -0.00000   0.00000   0.00000   0.00000  -0.00000
  29       12D+2        0.00000  -0.00000  -0.39840  -1.34435  -0.00000
  30       12D-2       -0.32094  -0.34613   0.00000   0.00000   0.00100
  31       13F 0        0.44457  -0.41222   0.00000   0.00000  -0.00630
  32       13F+1        0.00000  -0.00000  -0.00846  -0.77153  -0.00000
  33       13F-1       -0.16803  -0.18122   0.00000   0.00000   0.00020
  34       13F+2       -0.57359   0.53185  -0.00000  -0.00000   0.00813
  35       13F-2       -0.00000   0.00000  -0.00000   0.00000   0.00000
  36       13F+3        0.00000  -0.00000   0.01093   0.99604   0.00000
  37       13F-3        0.65158   0.70272  -0.00000  -0.00000  -0.00077
  38 2   H  1S          0.00000  -0.00000  -0.89923   0.86282  -0.00000
  39        2S         -0.00000   0.00000   2.45074   2.12539   0.00000
  40        3S          0.00000  -0.00000  -0.33348   0.09792  -0.00000
  41        4PX        -0.00000   0.00000   1.39880   1.69283   0.00000
  42        4PY        -0.54780  -0.59079   0.00000   0.00000   0.00226
  43        4PZ         0.59079  -0.54780   0.00000   0.00000  -0.02899
                          41        42        43
                           V         V         V
     Eigenvalues --    10.74876  10.82451  24.59813
   1 1   Cl 1S          0.00000   0.00344  -0.65781
   2        2S         -0.00000  -0.02517   2.52434
   3        3S         -0.00000  -0.01139   3.15216
   4        4S         -0.00000  -0.00580  -1.57220
   5        5S          0.00000  -0.06282   0.67018
   6        6PX        -0.00000  -1.17612  -0.02177
   7        6PY        -1.16987   0.00000   0.00000
   8        6PZ        -0.09104   0.00000   0.00000
   9        7PX         0.00000   2.23264   0.07321
  10        7PY         2.19938  -0.00000   0.00000
  11        7PZ         0.17116  -0.00000  -0.00000
  12        8PX        -0.00000  -1.97923  -0.20787
  13        8PY        -1.86982   0.00000  -0.00000
  14        8PZ        -0.14552   0.00000   0.00000
  15        9PX         0.00000   1.19640   0.49618
  16        9PY         0.97272  -0.00000   0.00000
  17        9PZ         0.07570  -0.00000  -0.00000
  18       10PX        -0.00000  -0.30646  -0.17126
  19       10PY        -0.28891   0.00000  -0.00000
  20       10PZ        -0.02248   0.00000   0.00000
  21       11D 0       -0.00000  -0.00761   0.01783
  22       11D+1        0.00025  -0.00000  -0.00000
  23       11D-1       -0.00000  -0.00000   0.00000
  24       11D+2        0.00000   0.01318  -0.03089
  25       11D-2        0.00316  -0.00000   0.00000
  26       12D 0       -0.00000   0.07513   0.09212
  27       12D+1       -0.00100   0.00000   0.00000
  28       12D-1        0.00000   0.00000  -0.00000
  29       12D+2        0.00000  -0.13013  -0.15955
  30       12D-2       -0.01288   0.00000   0.00000
  31       13F 0       -0.00049   0.00000   0.00000
  32       13F+1       -0.00000  -0.04885  -0.07072
  33       13F-1       -0.00257   0.00000  -0.00000
  34       13F+2        0.00063  -0.00000  -0.00000
  35       13F-2       -0.00000   0.00000  -0.00000
  36       13F+3        0.00000   0.06307   0.09130
  37       13F-3        0.00995  -0.00000   0.00000
  38 2   H  1S          0.00000   0.07545  -0.00052
  39        2S         -0.00000   0.26490   0.46469
  40        3S         -0.00000  -0.14849  -0.34446
  41        4PX        -0.00000   0.09350   0.30584
  42        4PY        -0.02899   0.00000  -0.00000
  43        4PZ        -0.00226   0.00000   0.00000
     Density Matrix:
                           1         2         3         4         5
   1 1   Cl 1S          2.19196
   2        2S          0.07020   0.10381
   3        3S         -0.60834  -0.43091   1.91761
   4        4S          0.11472   0.09150  -0.65291   0.93885
   5        5S          0.09101   0.07894  -0.52284   0.68399   0.51939
   6        6PX        -0.00459  -0.00434   0.02654  -0.03649  -0.05849
   7        6PY         0.00000   0.00000   0.00000  -0.00000   0.00000
   8        6PZ         0.00000  -0.00000  -0.00000   0.00000  -0.00000
   9        7PX        -0.00171  -0.00169   0.01091  -0.01665  -0.02777
  10        7PY        -0.00000  -0.00000   0.00000  -0.00000  -0.00000
  11        7PZ        -0.00000   0.00000  -0.00000   0.00000   0.00000
  12        8PX         0.00581   0.00464  -0.03214   0.04621   0.07501
  13        8PY         0.00000   0.00000  -0.00000   0.00000   0.00000
  14        8PZ         0.00000  -0.00000   0.00000  -0.00000  -0.00000
  15        9PX         0.01185   0.01217  -0.07673   0.09819   0.15387
  16        9PY        -0.00000  -0.00000   0.00000   0.00000  -0.00000
  17        9PZ        -0.00000   0.00000  -0.00000   0.00000   0.00000
  18       10PX         0.00716   0.00578  -0.04091   0.06022   0.08047
  19       10PY         0.00000   0.00000  -0.00000   0.00000  -0.00000
  20       10PZ         0.00000   0.00000  -0.00000  -0.00000  -0.00000
  21       11D 0       -0.00020  -0.00010   0.00146  -0.00310   0.00259
  22       11D+1        0.00000   0.00000  -0.00000  -0.00000  -0.00000
  23       11D-1        0.00000   0.00000  -0.00000   0.00000   0.00000
  24       11D+2        0.00035   0.00018  -0.00253   0.00537  -0.00449
  25       11D-2       -0.00000  -0.00000   0.00000   0.00000   0.00000
  26       12D 0       -0.00058  -0.00015   0.00154  -0.00262   0.00218
  27       12D+1       -0.00000  -0.00000   0.00000  -0.00000  -0.00000
  28       12D-1       -0.00000   0.00000  -0.00000   0.00000   0.00000
  29       12D+2        0.00101   0.00026  -0.00267   0.00454  -0.00378
  30       12D-2        0.00000   0.00000  -0.00000   0.00000   0.00000
  31       13F 0       -0.00000  -0.00000   0.00000  -0.00000  -0.00000
  32       13F+1        0.00036   0.00007  -0.00116   0.00262  -0.00003
  33       13F-1       -0.00000  -0.00000   0.00000  -0.00000  -0.00000
  34       13F+2        0.00000   0.00000  -0.00000  -0.00000  -0.00000
  35       13F-2        0.00000   0.00000  -0.00000   0.00000   0.00000
  36       13F+3       -0.00046  -0.00009   0.00150  -0.00339   0.00004
  37       13F-3        0.00000   0.00000  -0.00000   0.00000   0.00000
  38 2   H  1S          0.00708   0.00565  -0.03887   0.05145   0.00259
  39        2S          0.00241   0.00304  -0.01756   0.01566  -0.04235
  40        3S         -0.00242  -0.00327   0.01770  -0.01676  -0.02403
  41        4PX         0.00178   0.00241  -0.01371   0.01378   0.00602
  42        4PY         0.00000   0.00000   0.00000  -0.00000  -0.00000
  43        4PZ        -0.00000  -0.00000   0.00000   0.00000  -0.00000
                           6         7         8         9        10
   6        6PX         1.06940
   7        6PY         0.00000   1.09927
   8        6PZ         0.00000   0.00000   1.09927
   9        7PX         0.51542   0.00000  -0.00000   0.24843
  10        7PY        -0.00000   0.52862   0.00000  -0.00000   0.25420
  11        7PZ         0.00000   0.00000   0.52862  -0.00000   0.00000
  12        8PX         0.03363  -0.00000   0.00000   0.01556  -0.00000
  13        8PY         0.00000  -0.00642  -0.00000   0.00000  -0.00322
  14        8PZ        -0.00000   0.00000  -0.00642  -0.00000  -0.00000
  15        9PX        -0.16379   0.00000  -0.00000  -0.08010   0.00000
  16        9PY        -0.00000  -0.23949   0.00000  -0.00000  -0.11542
  17        9PZ         0.00000  -0.00000  -0.23949   0.00000  -0.00000
  18       10PX        -0.05960   0.00000   0.00000  -0.02924   0.00000
  19       10PY         0.00000  -0.14703   0.00000   0.00000  -0.07088
  20       10PZ        -0.00000   0.00000  -0.14703  -0.00000  -0.00000
  21       11D 0       -0.00755  -0.00000  -0.00000  -0.00371  -0.00000
  22       11D+1        0.00000   0.00000   0.00100   0.00000   0.00000
  23       11D-1       -0.00000   0.00000   0.00000  -0.00000   0.00000
  24       11D+2        0.01307  -0.00000  -0.00000   0.00643  -0.00000
  25       11D-2       -0.00000   0.00100  -0.00000  -0.00000   0.00048
  26       12D 0       -0.00793   0.00000   0.00000  -0.00389   0.00000
  27       12D+1       -0.00000  -0.00000   0.00925  -0.00000   0.00000
  28       12D-1        0.00000   0.00000   0.00000   0.00000   0.00000
  29       12D+2        0.01373   0.00000   0.00000   0.00673   0.00000
  30       12D-2        0.00000   0.00925   0.00000   0.00000   0.00446
  31       13F 0        0.00000   0.00000   0.00198   0.00000   0.00000
  32       13F+1        0.00340  -0.00000  -0.00000   0.00167  -0.00000
  33       13F-1        0.00000   0.00084  -0.00000   0.00000   0.00041
  34       13F+2       -0.00000  -0.00000  -0.00260  -0.00000  -0.00000
  35       13F-2       -0.00000   0.00000  -0.00000  -0.00000   0.00000
  36       13F+3       -0.00439  -0.00000   0.00000  -0.00216  -0.00000
  37       13F-3       -0.00000  -0.00315   0.00000  -0.00000  -0.00152
  38 2   H  1S          0.05691  -0.00000   0.00000   0.02803  -0.00000
  39        2S          0.08814   0.00000  -0.00000   0.04334   0.00000
  40        3S          0.02302  -0.00000   0.00000   0.01125  -0.00000
  41        4PX         0.00548   0.00000   0.00000   0.00272   0.00000
  42        4PY         0.00000  -0.00722   0.00000   0.00000  -0.00348
  43        4PZ         0.00000   0.00000  -0.00722   0.00000  -0.00000
                          11        12        13        14        15
  11        7PZ         0.25420
  12        8PX         0.00000   0.10033
  13        8PY        -0.00000  -0.00000   0.14859
  14        8PZ        -0.00322   0.00000   0.00000   0.14859
  15        9PX        -0.00000   0.17610   0.00000  -0.00000   0.35610
  16        9PY        -0.00000  -0.00000   0.28253   0.00000   0.00000
  17        9PZ        -0.11542   0.00000   0.00000   0.28253  -0.00000
  18       10PX         0.00000   0.08087  -0.00000   0.00000   0.16031
  19       10PY        -0.00000  -0.00000   0.19351   0.00000   0.00000
  20       10PZ        -0.07088   0.00000   0.00000   0.19351  -0.00000
  21       11D 0       -0.00000   0.01010   0.00000   0.00000   0.01998
  22       11D+1        0.00048  -0.00000   0.00000  -0.00306  -0.00000
  23       11D-1        0.00000  -0.00000  -0.00000   0.00000  -0.00000
  24       11D+2       -0.00000  -0.01750   0.00000   0.00000  -0.03461
  25       11D-2       -0.00000   0.00000  -0.00306  -0.00000   0.00000
  26       12D 0        0.00000   0.00838  -0.00000  -0.00000   0.01693
  27       12D+1        0.00446  -0.00000  -0.00000  -0.01062  -0.00000
  28       12D-1        0.00000   0.00000  -0.00000   0.00000   0.00000
  29       12D+2        0.00000  -0.01452  -0.00000  -0.00000  -0.02933
  30       12D-2        0.00000   0.00000  -0.01062   0.00000   0.00000
  31       13F 0        0.00095  -0.00000  -0.00000  -0.00256  -0.00000
  32       13F+1       -0.00000  -0.00391   0.00000   0.00000  -0.00783
  33       13F-1       -0.00000   0.00000  -0.00110   0.00000   0.00000
  34       13F+2       -0.00125  -0.00000   0.00000   0.00337  -0.00000
  35       13F-2       -0.00000   0.00000   0.00000   0.00000   0.00000
  36       13F+3        0.00000   0.00505   0.00000   0.00000   0.01011
  37       13F-3        0.00000  -0.00000   0.00409  -0.00000   0.00000
  38 2   H  1S          0.00000  -0.07146   0.00000  -0.00000  -0.14184
  39        2S         -0.00000  -0.11357   0.00000  -0.00000  -0.22537
  40        3S          0.00000  -0.02509   0.00000   0.00000  -0.05073
  41        4PX         0.00000  -0.00823   0.00000  -0.00000  -0.01603
  42        4PY        -0.00000   0.00000   0.00980   0.00000   0.00000
  43        4PZ        -0.00348  -0.00000   0.00000   0.00980  -0.00000
                          16        17        18        19        20
  16        9PY         0.58420
  17        9PZ        -0.00000   0.58420
  18       10PX        -0.00000   0.00000   0.07267
  19       10PY         0.39661  -0.00000  -0.00000   0.26950
  20       10PZ         0.00000   0.39661   0.00000   0.00000   0.26950
  21       11D 0        0.00000   0.00000   0.00887   0.00000   0.00000
  22       11D+1        0.00000  -0.00600  -0.00000   0.00000  -0.00409
  23       11D-1       -0.00000   0.00000  -0.00000  -0.00000   0.00000
  24       11D+2        0.00000   0.00000  -0.01536   0.00000   0.00000
  25       11D-2       -0.00600  -0.00000   0.00000  -0.00409  -0.00000
  26       12D 0       -0.00000  -0.00000   0.00749  -0.00000  -0.00000
  27       12D+1       -0.00000  -0.02202  -0.00000  -0.00000  -0.01495
  28       12D-1       -0.00000   0.00000   0.00000  -0.00000   0.00000
  29       12D+2       -0.00000  -0.00000  -0.01298  -0.00000  -0.00000
  30       12D-2       -0.02202   0.00000   0.00000  -0.01495   0.00000
  31       13F 0       -0.00000  -0.00525  -0.00000  -0.00000  -0.00357
  32       13F+1        0.00000   0.00000  -0.00344   0.00000   0.00000
  33       13F-1       -0.00225   0.00000   0.00000  -0.00153   0.00000
  34       13F+2        0.00000   0.00692   0.00000   0.00000   0.00470
  35       13F-2        0.00000   0.00000   0.00000   0.00000   0.00000
  36       13F+3        0.00000   0.00000   0.00444   0.00000   0.00000
  37       13F-3        0.00839  -0.00000  -0.00000   0.00570  -0.00000
  38 2   H  1S         -0.00000   0.00000  -0.06242   0.00000   0.00000
  39        2S          0.00000   0.00000  -0.10036   0.00000  -0.00000
  40        3S          0.00000   0.00000  -0.02287   0.00000   0.00000
  41        4PX         0.00000   0.00000  -0.00694   0.00000  -0.00000
  42        4PY         0.02004  -0.00000   0.00000   0.01362  -0.00000
  43        4PZ         0.00000   0.02004   0.00000   0.00000   0.01362
                          21        22        23        24        25
  21       11D 0        0.00121
  22       11D+1       -0.00000   0.00006
  23       11D-1       -0.00000  -0.00000   0.00000
  24       11D+2       -0.00209  -0.00000   0.00000   0.00362
  25       11D-2       -0.00000  -0.00000   0.00000  -0.00000   0.00006
  26       12D 0        0.00102   0.00000  -0.00000  -0.00176   0.00000
  27       12D+1       -0.00000   0.00023  -0.00000  -0.00000   0.00000
  28       12D-1       -0.00000  -0.00000   0.00000   0.00000   0.00000
  29       12D+2       -0.00176   0.00000   0.00000   0.00306   0.00000
  30       12D-2       -0.00000  -0.00000   0.00000  -0.00000   0.00023
  31       13F 0       -0.00000   0.00005  -0.00000  -0.00000   0.00000
  32       13F+1       -0.00049  -0.00000   0.00000   0.00084  -0.00000
  33       13F-1       -0.00000  -0.00000   0.00000  -0.00000   0.00002
  34       13F+2        0.00000  -0.00007   0.00000   0.00000  -0.00000
  35       13F-2        0.00000  -0.00000   0.00000  -0.00000  -0.00000
  36       13F+3        0.00063  -0.00000  -0.00000  -0.00108  -0.00000
  37       13F-3        0.00000   0.00000  -0.00000   0.00000  -0.00009
  38 2   H  1S         -0.00883   0.00000   0.00000   0.01529  -0.00000
  39        2S         -0.01341   0.00000   0.00000   0.02323  -0.00000
  40        3S         -0.00282   0.00000   0.00000   0.00489  -0.00000
  41        4PX        -0.00107   0.00000   0.00000   0.00186  -0.00000
  42        4PY         0.00000   0.00000  -0.00000   0.00000  -0.00021
  43        4PZ         0.00000  -0.00021   0.00000   0.00000  -0.00000
                          26        27        28        29        30
  26       12D 0        0.00086
  27       12D+1        0.00000   0.00083
  28       12D-1       -0.00000  -0.00000   0.00000
  29       12D+2       -0.00150   0.00000   0.00000   0.00259
  30       12D-2        0.00000   0.00000   0.00000   0.00000   0.00083
  31       13F 0        0.00000   0.00020  -0.00000   0.00000   0.00000
  32       13F+1       -0.00041  -0.00000   0.00000   0.00071  -0.00000
  33       13F-1        0.00000  -0.00000   0.00000   0.00000   0.00008
  34       13F+2       -0.00000  -0.00026   0.00000  -0.00000  -0.00000
  35       13F-2        0.00000  -0.00000   0.00000  -0.00000  -0.00000
  36       13F+3        0.00053  -0.00000  -0.00000  -0.00092  -0.00000
  37       13F-3       -0.00000   0.00000  -0.00000  -0.00000  -0.00032
  38 2   H  1S         -0.00747   0.00000   0.00000   0.01293  -0.00000
  39        2S         -0.01134   0.00000   0.00000   0.01964  -0.00000
  40        3S         -0.00239  -0.00000  -0.00000   0.00414  -0.00000
  41        4PX        -0.00091   0.00000   0.00000   0.00157  -0.00000
  42        4PY        -0.00000  -0.00000  -0.00000  -0.00000  -0.00076
  43        4PZ        -0.00000  -0.00076   0.00000  -0.00000   0.00000
                          31        32        33        34        35
  31       13F 0        0.00005
  32       13F+1       -0.00000   0.00020
  33       13F-1        0.00000  -0.00000   0.00001
  34       13F+2       -0.00006   0.00000  -0.00000   0.00008
  35       13F-2       -0.00000  -0.00000  -0.00000   0.00000   0.00000
  36       13F+3       -0.00000  -0.00025  -0.00000   0.00000   0.00000
  37       13F-3       -0.00000   0.00000  -0.00003   0.00000   0.00000
  38 2   H  1S          0.00000   0.00359  -0.00000   0.00000  -0.00000
  39        2S          0.00000   0.00536  -0.00000   0.00000  -0.00000
  40        3S          0.00000   0.00110  -0.00000   0.00000  -0.00000
  41        4PX         0.00000   0.00045  -0.00000   0.00000  -0.00000
  42        4PY        -0.00000   0.00000  -0.00008   0.00000   0.00000
  43        4PZ        -0.00018   0.00000   0.00000   0.00024   0.00000
                          36        37        38        39        40
  36       13F+3        0.00033
  37       13F-3        0.00000   0.00012
  38 2   H  1S         -0.00464   0.00000   0.06561
  39        2S         -0.00692   0.00000   0.09770   0.14965
  40        3S         -0.00142   0.00000   0.01991   0.03183   0.00725
  41        4PX        -0.00058   0.00000   0.00824   0.01177   0.00221
  42        4PY         0.00000   0.00029  -0.00000  -0.00000  -0.00000
  43        4PZ         0.00000  -0.00000   0.00000   0.00000   0.00000
                          41        42        43
  41        4PX         0.00110
  42        4PY         0.00000   0.00069
  43        4PZ        -0.00000  -0.00000   0.00069
    Full Mulliken population analysis:
                           1         2         3         4         5
   1 1   Cl 1S          2.19196
   2        2S         -0.00527   0.10381
   3        3S         -0.18577   0.36870   1.91761
   4        4S          0.00956  -0.03231  -0.39343   0.93885
   5        5S          0.00355  -0.01380  -0.17144   0.56558   0.51939
   6        6PX         0.00000   0.00000   0.00000   0.00000   0.00000
   7        6PY         0.00000   0.00000   0.00000   0.00000   0.00000
   8        6PZ         0.00000   0.00000   0.00000   0.00000   0.00000
   9        7PX         0.00000   0.00000   0.00000   0.00000   0.00000
  10        7PY         0.00000   0.00000   0.00000   0.00000   0.00000
  11        7PZ         0.00000   0.00000   0.00000   0.00000   0.00000
  12        8PX         0.00000   0.00000   0.00000   0.00000   0.00000
  13        8PY         0.00000   0.00000   0.00000   0.00000   0.00000
  14        8PZ         0.00000   0.00000   0.00000   0.00000   0.00000
  15        9PX         0.00000   0.00000   0.00000   0.00000   0.00000
  16        9PY         0.00000   0.00000   0.00000   0.00000   0.00000
  17        9PZ         0.00000   0.00000   0.00000   0.00000   0.00000
  18       10PX         0.00000   0.00000   0.00000   0.00000   0.00000
  19       10PY         0.00000   0.00000   0.00000   0.00000   0.00000
  20       10PZ         0.00000   0.00000   0.00000   0.00000   0.00000
  21       11D 0        0.00000   0.00000   0.00000   0.00000   0.00000
  22       11D+1        0.00000   0.00000   0.00000   0.00000   0.00000
  23       11D-1        0.00000   0.00000   0.00000   0.00000   0.00000
  24       11D+2        0.00000  -0.00000  -0.00000   0.00000   0.00000
  25       11D-2        0.00000   0.00000   0.00000   0.00000   0.00000
  26       12D 0        0.00000   0.00000   0.00000   0.00000   0.00000
  27       12D+1        0.00000   0.00000   0.00000   0.00000   0.00000
  28       12D-1        0.00000   0.00000   0.00000   0.00000   0.00000
  29       12D+2       -0.00000  -0.00000   0.00000   0.00000  -0.00000
  30       12D-2        0.00000   0.00000   0.00000   0.00000   0.00000
  31       13F 0        0.00000   0.00000   0.00000   0.00000   0.00000
  32       13F+1        0.00000   0.00000   0.00000   0.00000   0.00000
  33       13F-1        0.00000   0.00000   0.00000   0.00000   0.00000
  34       13F+2        0.00000   0.00000   0.00000   0.00000   0.00000
  35       13F-2        0.00000   0.00000   0.00000   0.00000   0.00000
  36       13F+3        0.00000   0.00000   0.00000   0.00000   0.00000
  37       13F-3        0.00000   0.00000   0.00000   0.00000   0.00000
  38 2   H  1S          0.00000  -0.00001  -0.00027   0.00527   0.00054
  39        2S          0.00002  -0.00013  -0.00153   0.00476  -0.02014
  40        3S         -0.00003   0.00021   0.00224  -0.00663  -0.01548
  41        4PX         0.00001  -0.00007  -0.00094   0.00364   0.00138
  42        4PY         0.00000   0.00000   0.00000   0.00000   0.00000
  43        4PZ         0.00000   0.00000   0.00000   0.00000   0.00000
                           6         7         8         9        10
   6        6PX         1.06940
   7        6PY         0.00000   1.09927
   8        6PZ         0.00000   0.00000   1.09927
   9        7PX         0.32983   0.00000   0.00000   0.24843
  10        7PY         0.00000   0.33828   0.00000   0.00000   0.25420
  11        7PZ         0.00000   0.00000   0.33828   0.00000   0.00000
  12        8PX         0.00918   0.00000   0.00000   0.01126   0.00000
  13        8PY         0.00000  -0.00175   0.00000   0.00000  -0.00233
  14        8PZ         0.00000   0.00000  -0.00175   0.00000   0.00000
  15        9PX        -0.01545   0.00000   0.00000  -0.02619   0.00000
  16        9PY         0.00000  -0.02259   0.00000   0.00000  -0.03773
  17        9PZ         0.00000   0.00000  -0.02259   0.00000   0.00000
  18       10PX        -0.00157   0.00000   0.00000  -0.00302   0.00000
  19       10PY         0.00000  -0.00388   0.00000   0.00000  -0.00733
  20       10PZ         0.00000   0.00000  -0.00388   0.00000   0.00000
  21       11D 0        0.00000   0.00000   0.00000   0.00000   0.00000
  22       11D+1        0.00000   0.00000   0.00000   0.00000   0.00000
  23       11D-1        0.00000   0.00000   0.00000   0.00000   0.00000
  24       11D+2        0.00000   0.00000   0.00000   0.00000   0.00000
  25       11D-2        0.00000   0.00000   0.00000   0.00000   0.00000
  26       12D 0        0.00000   0.00000   0.00000   0.00000   0.00000
  27       12D+1        0.00000   0.00000   0.00000   0.00000   0.00000
  28       12D-1        0.00000   0.00000   0.00000   0.00000   0.00000
  29       12D+2        0.00000   0.00000   0.00000   0.00000   0.00000
  30       12D-2        0.00000   0.00000   0.00000   0.00000   0.00000
  31       13F 0        0.00000   0.00000   0.00000   0.00000   0.00000
  32       13F+1       -0.00000   0.00000   0.00000  -0.00000   0.00000
  33       13F-1        0.00000  -0.00000   0.00000   0.00000  -0.00000
  34       13F+2        0.00000   0.00000  -0.00000   0.00000   0.00000
  35       13F-2        0.00000   0.00000   0.00000   0.00000   0.00000
  36       13F+3        0.00000   0.00000   0.00000   0.00000   0.00000
  37       13F-3        0.00000  -0.00000   0.00000   0.00000  -0.00000
  38 2   H  1S         -0.00010   0.00000   0.00000  -0.00037   0.00000
  39        2S         -0.00152   0.00000   0.00000  -0.00300   0.00000
  40        3S         -0.00019   0.00000   0.00000  -0.00038   0.00000
  41        4PX        -0.00012   0.00000   0.00000  -0.00027   0.00000
  42        4PY         0.00000  -0.00002   0.00000   0.00000  -0.00005
  43        4PZ         0.00000   0.00000  -0.00002   0.00000   0.00000
                          11        12        13        14        15
  11        7PZ         0.25420
  12        8PX         0.00000   0.10033
  13        8PY         0.00000   0.00000   0.14859
  14        8PZ        -0.00233   0.00000   0.00000   0.14859
  15        9PX         0.00000   0.13077   0.00000   0.00000   0.35610
  16        9PY         0.00000   0.00000   0.20980   0.00000   0.00000
  17        9PZ        -0.03773   0.00000   0.00000   0.20980   0.00000
  18       10PX         0.00000   0.02545   0.00000   0.00000   0.11324
  19       10PY         0.00000   0.00000   0.06089   0.00000   0.00000
  20       10PZ        -0.00733   0.00000   0.00000   0.06089   0.00000
  21       11D 0        0.00000   0.00000   0.00000   0.00000   0.00000
  22       11D+1        0.00000   0.00000   0.00000   0.00000   0.00000
  23       11D-1        0.00000   0.00000   0.00000   0.00000   0.00000
  24       11D+2        0.00000   0.00000   0.00000   0.00000   0.00000
  25       11D-2        0.00000   0.00000   0.00000   0.00000   0.00000
  26       12D 0        0.00000   0.00000   0.00000   0.00000   0.00000
  27       12D+1        0.00000   0.00000   0.00000   0.00000   0.00000
  28       12D-1        0.00000   0.00000   0.00000   0.00000   0.00000
  29       12D+2        0.00000   0.00000   0.00000   0.00000   0.00000
  30       12D-2        0.00000   0.00000   0.00000   0.00000   0.00000
  31       13F 0        0.00000   0.00000   0.00000  -0.00000   0.00000
  32       13F+1        0.00000   0.00000   0.00000   0.00000   0.00000
  33       13F-1        0.00000   0.00000   0.00000   0.00000   0.00000
  34       13F+2        0.00000   0.00000   0.00000  -0.00000   0.00000
  35       13F-2        0.00000   0.00000   0.00000   0.00000   0.00000
  36       13F+3        0.00000  -0.00000   0.00000   0.00000  -0.00000
  37       13F-3        0.00000   0.00000   0.00000   0.00000   0.00000
  38 2   H  1S          0.00000   0.00664   0.00000   0.00000   0.04396
  39        2S          0.00000   0.02468   0.00000   0.00000   0.11008
  40        3S          0.00000   0.00280   0.00000   0.00000   0.01475
  41        4PX         0.00000   0.00246   0.00000   0.00000   0.00607
  42        4PY         0.00000   0.00000   0.00068   0.00000   0.00000
  43        4PZ        -0.00005   0.00000   0.00000   0.00068   0.00000
                          16        17        18        19        20
  16        9PY         0.58420
  17        9PZ         0.00000   0.58420
  18       10PX         0.00000   0.00000   0.07267
  19       10PY         0.28016   0.00000   0.00000   0.26950
  20       10PZ         0.00000   0.28016   0.00000   0.00000   0.26950
  21       11D 0        0.00000   0.00000   0.00000   0.00000   0.00000
  22       11D+1        0.00000   0.00000   0.00000   0.00000   0.00000
  23       11D-1        0.00000   0.00000   0.00000   0.00000   0.00000
  24       11D+2        0.00000   0.00000   0.00000   0.00000   0.00000
  25       11D-2        0.00000   0.00000   0.00000   0.00000   0.00000
  26       12D 0        0.00000   0.00000   0.00000   0.00000   0.00000
  27       12D+1        0.00000   0.00000   0.00000   0.00000   0.00000
  28       12D-1        0.00000   0.00000   0.00000   0.00000   0.00000
  29       12D+2        0.00000   0.00000   0.00000   0.00000   0.00000
  30       12D-2        0.00000   0.00000   0.00000   0.00000   0.00000
  31       13F 0        0.00000  -0.00000   0.00000   0.00000   0.00000
  32       13F+1        0.00000   0.00000   0.00000   0.00000   0.00000
  33       13F-1        0.00000   0.00000   0.00000   0.00000   0.00000
  34       13F+2        0.00000   0.00000   0.00000   0.00000  -0.00000
  35       13F-2        0.00000   0.00000   0.00000   0.00000   0.00000
  36       13F+3        0.00000   0.00000  -0.00000   0.00000   0.00000
  37       13F-3        0.00000   0.00000   0.00000   0.00000   0.00000
  38 2   H  1S          0.00000   0.00000   0.02140   0.00000   0.00000
  39        2S          0.00000   0.00000   0.06235   0.00000   0.00000
  40        3S          0.00000   0.00000   0.01245   0.00000   0.00000
  41        4PX         0.00000   0.00000   0.00045   0.00000   0.00000
  42        4PY         0.00373   0.00000   0.00000   0.00284   0.00000
  43        4PZ         0.00000   0.00373   0.00000   0.00000   0.00284
                          21        22        23        24        25
  21       11D 0        0.00121
  22       11D+1        0.00000   0.00006
  23       11D-1        0.00000   0.00000   0.00000
  24       11D+2       -0.00000   0.00000   0.00000   0.00362
  25       11D-2        0.00000   0.00000   0.00000   0.00000   0.00006
  26       12D 0        0.00058   0.00000   0.00000  -0.00000   0.00000
  27       12D+1        0.00000   0.00013   0.00000   0.00000   0.00000
  28       12D-1        0.00000   0.00000   0.00000   0.00000   0.00000
  29       12D+2        0.00000   0.00000   0.00000   0.00175   0.00000
  30       12D-2        0.00000   0.00000   0.00000   0.00000   0.00013
  31       13F 0        0.00000   0.00000   0.00000   0.00000   0.00000
  32       13F+1        0.00000   0.00000   0.00000   0.00000   0.00000
  33       13F-1        0.00000   0.00000   0.00000   0.00000   0.00000
  34       13F+2        0.00000   0.00000   0.00000   0.00000   0.00000
  35       13F-2        0.00000   0.00000   0.00000   0.00000   0.00000
  36       13F+3        0.00000   0.00000   0.00000   0.00000   0.00000
  37       13F-3        0.00000   0.00000   0.00000   0.00000   0.00000
  38 2   H  1S          0.00061   0.00000   0.00000   0.00182   0.00000
  39        2S          0.00096   0.00000   0.00000   0.00288   0.00000
  40        3S          0.00004   0.00000   0.00000   0.00012   0.00000
  41        4PX         0.00015   0.00000   0.00000   0.00044   0.00000
  42        4PY         0.00000   0.00000   0.00000   0.00000   0.00003
  43        4PZ         0.00000   0.00003   0.00000   0.00000   0.00000
                          26        27        28        29        30
  26       12D 0        0.00086
  27       12D+1        0.00000   0.00083
  28       12D-1        0.00000   0.00000   0.00000
  29       12D+2       -0.00000   0.00000   0.00000   0.00259
  30       12D-2        0.00000   0.00000   0.00000   0.00000   0.00083
  31       13F 0        0.00000   0.00000   0.00000   0.00000   0.00000
  32       13F+1        0.00000   0.00000   0.00000   0.00000   0.00000
  33       13F-1        0.00000   0.00000   0.00000   0.00000   0.00000
  34       13F+2        0.00000   0.00000   0.00000   0.00000   0.00000
  35       13F-2        0.00000   0.00000   0.00000   0.00000   0.00000
  36       13F+3        0.00000   0.00000   0.00000   0.00000   0.00000
  37       13F-3        0.00000   0.00000   0.00000   0.00000   0.00000
  38 2   H  1S          0.00159   0.00000   0.00000   0.00478   0.00000
  39        2S          0.00236   0.00000   0.00000   0.00709   0.00000
  40        3S          0.00015   0.00000   0.00000   0.00044   0.00000
  41        4PX         0.00008   0.00000   0.00000   0.00024   0.00000
  42        4PY         0.00000   0.00000   0.00000   0.00000   0.00030
  43        4PZ         0.00000   0.00030   0.00000   0.00000   0.00000
                          31        32        33        34        35
  31       13F 0        0.00005
  32       13F+1        0.00000   0.00020
  33       13F-1        0.00000   0.00000   0.00001
  34       13F+2       -0.00000   0.00000   0.00000   0.00008
  35       13F-2        0.00000   0.00000   0.00000   0.00000   0.00000
  36       13F+3        0.00000  -0.00000   0.00000   0.00000   0.00000
  37       13F-3        0.00000   0.00000   0.00000   0.00000   0.00000
  38 2   H  1S          0.00000   0.00065   0.00000   0.00000   0.00000
  39        2S          0.00000   0.00044   0.00000   0.00000   0.00000
  40        3S          0.00000   0.00001   0.00000   0.00000   0.00000
  41        4PX         0.00000   0.00005   0.00000   0.00000   0.00000
  42        4PY         0.00000   0.00000   0.00001   0.00000   0.00000
  43        4PZ         0.00004   0.00000   0.00000   0.00006   0.00000
                          36        37        38        39        40
  36       13F+3        0.00033
  37       13F-3        0.00000   0.00012
  38 2   H  1S          0.00108   0.00000   0.06561
  39        2S          0.00073   0.00000   0.06900   0.14965
  40        3S          0.00001   0.00000   0.00743   0.02510   0.00725
  41        4PX         0.00008   0.00000   0.00000   0.00000   0.00000
  42        4PY         0.00000   0.00009   0.00000   0.00000   0.00000
  43        4PZ         0.00000   0.00000   0.00000   0.00000   0.00000
                          41        42        43
  41        4PX         0.00110
  42        4PY         0.00000   0.00069
  43        4PZ         0.00000   0.00000   0.00069
     Gross orbital populations:
                           1
   1 1   Cl 1S          2.01403
   2        2S          0.42115
   3        3S          1.53516
   4        4S          1.09529
   5        5S          0.86958
   6        6PX         1.38945
   7        6PY         1.40930
   8        6PZ         1.40930
   9        7PX         0.55629
  10        7PY         0.54503
  11        7PZ         0.54503
  12        8PX         0.31357
  13        8PY         0.41588
  14        8PZ         0.41588
  15        9PX         0.73336
  16        9PY         1.01758
  17        9PZ         1.01758
  18       10PX         0.30342
  19       10PY         0.60219
  20       10PZ         0.60219
  21       11D 0        0.00354
  22       11D+1        0.00022
  23       11D-1        0.00000
  24       11D+2        0.01062
  25       11D-2        0.00022
  26       12D 0        0.00563
  27       12D+1        0.00126
  28       12D-1        0.00000
  29       12D+2        0.01689
  30       12D-2        0.00126
  31       13F 0        0.00008
  32       13F+1        0.00134
  33       13F-1        0.00002
  34       13F+2        0.00014
  35       13F-2        0.00000
  36       13F+3        0.00223
  37       13F-3        0.00021
  38 2   H  1S          0.22964
  39        2S          0.43379
  40        3S          0.05026
  41        4PX         0.01476
  42        4PY         0.00830
  43        4PZ         0.00830
          Condensed to atoms (all electrons):
               1          2
     1  Cl  16.937935   0.317007
     2  H    0.317007   0.428050
 Mulliken charges:
               1
     1  Cl  -0.254942
     2  H    0.254942
 Sum of Mulliken charges =   0.00000
 Mulliken charges with hydrogens summed into heavy atoms:
               1
     1  Cl   0.000000

 Bonding Mulliken population analysis:
      Bonding Density Matrix:
                           1         2         3         4         5
   1 1   Cl 1S          0.00000
   2        2S          0.00000   0.00000
   3        3S          0.00000   0.00000   0.00000
   4        4S          0.00000   0.00000   0.00000   0.00000
   5        5S          0.00000   0.00000   0.00000   0.00000   0.00000
   6        6PX         0.00000   0.00000   0.00000   0.00000   0.00000
   7        6PY         0.00000   0.00000   0.00000   0.00000   0.00000
   8        6PZ         0.00000   0.00000   0.00000   0.00000   0.00000
   9        7PX         0.00000   0.00000   0.00000   0.00000   0.00000
  10        7PY         0.00000   0.00000   0.00000   0.00000   0.00000
  11        7PZ         0.00000   0.00000   0.00000   0.00000   0.00000
  12        8PX         0.00000   0.00000   0.00000   0.00000   0.00000
  13        8PY         0.00000   0.00000   0.00000   0.00000   0.00000
  14        8PZ         0.00000   0.00000   0.00000   0.00000   0.00000
  15        9PX         0.00000   0.00000   0.00000   0.00000   0.00000
  16        9PY         0.00000   0.00000   0.00000   0.00000   0.00000
  17        9PZ         0.00000   0.00000   0.00000   0.00000   0.00000
  18       10PX         0.00000   0.00000   0.00000   0.00000   0.00000
  19       10PY         0.00000   0.00000   0.00000   0.00000   0.00000
  20       10PZ         0.00000   0.00000   0.00000   0.00000   0.00000
  21       11D 0        0.00000   0.00000   0.00000   0.00000   0.00000
  22       11D+1        0.00000   0.00000   0.00000   0.00000   0.00000
  23       11D-1        0.00000   0.00000   0.00000   0.00000   0.00000
  24       11D+2        0.00000   0.00000   0.00000   0.00000   0.00000
  25       11D-2        0.00000   0.00000   0.00000   0.00000   0.00000
  26       12D 0        0.00000   0.00000   0.00000   0.00000   0.00000
  27       12D+1        0.00000   0.00000   0.00000   0.00000   0.00000
  28       12D-1        0.00000   0.00000   0.00000   0.00000   0.00000
  29       12D+2        0.00000   0.00000   0.00000   0.00000   0.00000
  30       12D-2        0.00000   0.00000   0.00000   0.00000   0.00000
  31       13F 0        0.00000   0.00000   0.00000   0.00000   0.00000
  32       13F+1        0.00000   0.00000   0.00000   0.00000   0.00000
  33       13F-1        0.00000   0.00000   0.00000   0.00000   0.00000
  34       13F+2        0.00000   0.00000   0.00000   0.00000   0.00000
  35       13F-2        0.00000   0.00000   0.00000   0.00000   0.00000
  36       13F+3        0.00000   0.00000   0.00000   0.00000   0.00000
  37       13F-3        0.00000   0.00000   0.00000   0.00000   0.00000
  38 2   H  1S          0.00708   0.00565  -0.03887   0.05145   0.00259
  39        2S          0.00241   0.00304  -0.01756   0.01566  -0.04235
  40        3S         -0.00242  -0.00327   0.01770  -0.01676  -0.02403
  41        4PX         0.00178   0.00241  -0.01371   0.01378   0.00602
  42        4PY         0.00000   0.00000   0.00000  -0.00000  -0.00000
  43        4PZ        -0.00000  -0.00000   0.00000   0.00000  -0.00000
                           6         7         8         9        10
   6        6PX         0.00000
   7        6PY         0.00000   0.00000
   8        6PZ         0.00000   0.00000   0.00000
   9        7PX         0.00000   0.00000   0.00000   0.00000
  10        7PY         0.00000   0.00000   0.00000   0.00000   0.00000
  11        7PZ         0.00000   0.00000   0.00000   0.00000   0.00000
  12        8PX         0.00000   0.00000   0.00000   0.00000   0.00000
  13        8PY         0.00000   0.00000   0.00000   0.00000   0.00000
  14        8PZ         0.00000   0.00000   0.00000   0.00000   0.00000
  15        9PX         0.00000   0.00000   0.00000   0.00000   0.00000
  16        9PY         0.00000   0.00000   0.00000   0.00000   0.00000
  17        9PZ         0.00000   0.00000   0.00000   0.00000   0.00000
  18       10PX         0.00000   0.00000   0.00000   0.00000   0.00000
  19       10PY         0.00000   0.00000   0.00000   0.00000   0.00000
  20       10PZ         0.00000   0.00000   0.00000   0.00000   0.00000
  21       11D 0        0.00000   0.00000   0.00000   0.00000   0.00000
  22       11D+1        0.00000   0.00000   0.00000   0.00000   0.00000
  23       11D-1        0.00000   0.00000   0.00000   0.00000   0.00000
  24       11D+2        0.00000   0.00000   0.00000   0.00000   0.00000
  25       11D-2        0.00000   0.00000   0.00000   0.00000   0.00000
  26       12D 0        0.00000   0.00000   0.00000   0.00000   0.00000
  27       12D+1        0.00000   0.00000   0.00000   0.00000   0.00000
  28       12D-1        0.00000   0.00000   0.00000   0.00000   0.00000
  29       12D+2        0.00000   0.00000   0.00000   0.00000   0.00000
  30       12D-2        0.00000   0.00000   0.00000   0.00000   0.00000
  31       13F 0        0.00000   0.00000   0.00000   0.00000   0.00000
  32       13F+1        0.00000   0.00000   0.00000   0.00000   0.00000
  33       13F-1        0.00000   0.00000   0.00000   0.00000   0.00000
  34       13F+2        0.00000   0.00000   0.00000   0.00000   0.00000
  35       13F-2        0.00000   0.00000   0.00000   0.00000   0.00000
  36       13F+3        0.00000   0.00000   0.00000   0.00000   0.00000
  37       13F-3        0.00000   0.00000   0.00000   0.00000   0.00000
  38 2   H  1S          0.05691  -0.00000   0.00000   0.02803  -0.00000
  39        2S          0.08814   0.00000  -0.00000   0.04334   0.00000
  40        3S          0.02302  -0.00000   0.00000   0.01125  -0.00000
  41        4PX         0.00548   0.00000   0.00000   0.00272   0.00000
  42        4PY         0.00000  -0.00722   0.00000   0.00000  -0.00348
  43        4PZ         0.00000   0.00000  -0.00722   0.00000  -0.00000
                          11        12        13        14        15
  11        7PZ         0.00000
  12        8PX         0.00000   0.00000
  13        8PY         0.00000   0.00000   0.00000
  14        8PZ         0.00000   0.00000   0.00000   0.00000
  15        9PX         0.00000   0.00000   0.00000   0.00000   0.00000
  16        9PY         0.00000   0.00000   0.00000   0.00000   0.00000
  17        9PZ         0.00000   0.00000   0.00000   0.00000   0.00000
  18       10PX         0.00000   0.00000   0.00000   0.00000   0.00000
  19       10PY         0.00000   0.00000   0.00000   0.00000   0.00000
  20       10PZ         0.00000   0.00000   0.00000   0.00000   0.00000
  21       11D 0        0.00000   0.00000   0.00000   0.00000   0.00000
  22       11D+1        0.00000   0.00000   0.00000   0.00000   0.00000
  23       11D-1        0.00000   0.00000   0.00000   0.00000   0.00000
  24       11D+2        0.00000   0.00000   0.00000   0.00000   0.00000
  25       11D-2        0.00000   0.00000   0.00000   0.00000   0.00000
  26       12D 0        0.00000   0.00000   0.00000   0.00000   0.00000
  27       12D+1        0.00000   0.00000   0.00000   0.00000   0.00000
  28       12D-1        0.00000   0.00000   0.00000   0.00000   0.00000
  29       12D+2        0.00000   0.00000   0.00000   0.00000   0.00000
  30       12D-2        0.00000   0.00000   0.00000   0.00000   0.00000
  31       13F 0        0.00000   0.00000   0.00000   0.00000   0.00000
  32       13F+1        0.00000   0.00000   0.00000   0.00000   0.00000
  33       13F-1        0.00000   0.00000   0.00000   0.00000   0.00000
  34       13F+2        0.00000   0.00000   0.00000   0.00000   0.00000
  35       13F-2        0.00000   0.00000   0.00000   0.00000   0.00000
  36       13F+3        0.00000   0.00000   0.00000   0.00000   0.00000
  37       13F-3        0.00000   0.00000   0.00000   0.00000   0.00000
  38 2   H  1S          0.00000  -0.07146   0.00000  -0.00000  -0.14184
  39        2S         -0.00000  -0.11357   0.00000  -0.00000  -0.22537
  40        3S          0.00000  -0.02509   0.00000   0.00000  -0.05073
  41        4PX         0.00000  -0.00823   0.00000  -0.00000  -0.01603
  42        4PY        -0.00000   0.00000   0.00980   0.00000   0.00000
  43        4PZ        -0.00348  -0.00000   0.00000   0.00980  -0.00000
                          16        17        18        19        20
  16        9PY         0.00000
  17        9PZ         0.00000   0.00000
  18       10PX         0.00000   0.00000   0.00000
  19       10PY         0.00000   0.00000   0.00000   0.00000
  20       10PZ         0.00000   0.00000   0.00000   0.00000   0.00000
  21       11D 0        0.00000   0.00000   0.00000   0.00000   0.00000
  22       11D+1        0.00000   0.00000   0.00000   0.00000   0.00000
  23       11D-1        0.00000   0.00000   0.00000   0.00000   0.00000
  24       11D+2        0.00000   0.00000   0.00000   0.00000   0.00000
  25       11D-2        0.00000   0.00000   0.00000   0.00000   0.00000
  26       12D 0        0.00000   0.00000   0.00000   0.00000   0.00000
  27       12D+1        0.00000   0.00000   0.00000   0.00000   0.00000
  28       12D-1        0.00000   0.00000   0.00000   0.00000   0.00000
  29       12D+2        0.00000   0.00000   0.00000   0.00000   0.00000
  30       12D-2        0.00000   0.00000   0.00000   0.00000   0.00000
  31       13F 0        0.00000   0.00000   0.00000   0.00000   0.00000
  32       13F+1        0.00000   0.00000   0.00000   0.00000   0.00000
  33       13F-1        0.00000   0.00000   0.00000   0.00000   0.00000
  34       13F+2        0.00000   0.00000   0.00000   0.00000   0.00000
  35       13F-2        0.00000   0.00000   0.00000   0.00000   0.00000
  36       13F+3        0.00000   0.00000   0.00000   0.00000   0.00000
  37       13F-3        0.00000   0.00000   0.00000   0.00000   0.00000
  38 2   H  1S         -0.00000   0.00000  -0.06242   0.00000   0.00000
  39        2S          0.00000   0.00000  -0.10036   0.00000  -0.00000
  40        3S          0.00000   0.00000  -0.02287   0.00000   0.00000
  41        4PX         0.00000   0.00000  -0.00694   0.00000  -0.00000
  42        4PY         0.02004  -0.00000   0.00000   0.01362  -0.00000
  43        4PZ         0.00000   0.02004   0.00000   0.00000   0.01362
                          21        22        23        24        25
  21       11D 0        0.00000
  22       11D+1        0.00000   0.00000
  23       11D-1        0.00000   0.00000   0.00000
  24       11D+2        0.00000   0.00000   0.00000   0.00000
  25       11D-2        0.00000   0.00000   0.00000   0.00000   0.00000
  26       12D 0        0.00000   0.00000   0.00000   0.00000   0.00000
  27       12D+1        0.00000   0.00000   0.00000   0.00000   0.00000
  28       12D-1        0.00000   0.00000   0.00000   0.00000   0.00000
  29       12D+2        0.00000   0.00000   0.00000   0.00000   0.00000
  30       12D-2        0.00000   0.00000   0.00000   0.00000   0.00000
  31       13F 0        0.00000   0.00000   0.00000   0.00000   0.00000
  32       13F+1        0.00000   0.00000   0.00000   0.00000   0.00000
  33       13F-1        0.00000   0.00000   0.00000   0.00000   0.00000
  34       13F+2        0.00000   0.00000   0.00000   0.00000   0.00000
  35       13F-2        0.00000   0.00000   0.00000   0.00000   0.00000
  36       13F+3        0.00000   0.00000   0.00000   0.00000   0.00000
  37       13F-3        0.00000   0.00000   0.00000   0.00000   0.00000
  38 2   H  1S         -0.00883   0.00000   0.00000   0.01529  -0.00000
  39        2S         -0.01341   0.00000   0.00000   0.02323  -0.00000
  40        3S         -0.00282   0.00000   0.00000   0.00489  -0.00000
  41        4PX        -0.00107   0.00000   0.00000   0.00186  -0.00000
  42        4PY         0.00000   0.00000  -0.00000   0.00000  -0.00021
  43        4PZ         0.00000  -0.00021   0.00000   0.00000  -0.00000
                          26        27        28        29        30
  26       12D 0        0.00000
  27       12D+1        0.00000   0.00000
  28       12D-1        0.00000   0.00000   0.00000
  29       12D+2        0.00000   0.00000   0.00000   0.00000
  30       12D-2        0.00000   0.00000   0.00000   0.00000   0.00000
  31       13F 0        0.00000   0.00000   0.00000   0.00000   0.00000
  32       13F+1        0.00000   0.00000   0.00000   0.00000   0.00000
  33       13F-1        0.00000   0.00000   0.00000   0.00000   0.00000
  34       13F+2        0.00000   0.00000   0.00000   0.00000   0.00000
  35       13F-2        0.00000   0.00000   0.00000   0.00000   0.00000
  36       13F+3        0.00000   0.00000   0.00000   0.00000   0.00000
  37       13F-3        0.00000   0.00000   0.00000   0.00000   0.00000
  38 2   H  1S         -0.00747   0.00000   0.00000   0.01293  -0.00000
  39        2S         -0.01134   0.00000   0.00000   0.01964  -0.00000
  40        3S         -0.00239  -0.00000  -0.00000   0.00414  -0.00000
  41        4PX        -0.00091   0.00000   0.00000   0.00157  -0.00000
  42        4PY        -0.00000  -0.00000  -0.00000  -0.00000  -0.00076
  43        4PZ        -0.00000  -0.00076   0.00000  -0.00000   0.00000
                          31        32        33        34        35
  31       13F 0        0.00000
  32       13F+1        0.00000   0.00000
  33       13F-1        0.00000   0.00000   0.00000
  34       13F+2        0.00000   0.00000   0.00000   0.00000
  35       13F-2        0.00000   0.00000   0.00000   0.00000   0.00000
  36       13F+3        0.00000   0.00000   0.00000   0.00000   0.00000
  37       13F-3        0.00000   0.00000   0.00000   0.00000   0.00000
  38 2   H  1S          0.00000   0.00359  -0.00000   0.00000  -0.00000
  39        2S          0.00000   0.00536  -0.00000   0.00000  -0.00000
  40        3S          0.00000   0.00110  -0.00000   0.00000  -0.00000
  41        4PX         0.00000   0.00045  -0.00000   0.00000  -0.00000
  42        4PY        -0.00000   0.00000  -0.00008   0.00000   0.00000
  43        4PZ        -0.00018   0.00000   0.00000   0.00024   0.00000
                          36        37        38        39        40
  36       13F+3        0.00000
  37       13F-3        0.00000   0.00000
  38 2   H  1S         -0.00464   0.00000   0.00000
  39        2S         -0.00692   0.00000   0.00000   0.00000
  40        3S         -0.00142   0.00000   0.00000   0.00000   0.00000
  41        4PX        -0.00058   0.00000   0.00000   0.00000   0.00000
  42        4PY         0.00000   0.00029   0.00000   0.00000   0.00000
  43        4PZ         0.00000  -0.00000   0.00000   0.00000   0.00000
                          41        42        43
  41        4PX         0.00000
  42        4PY         0.00000   0.00000
  43        4PZ         0.00000   0.00000   0.00000
    Full Bonding Mulliken population analysis:
                           1         2         3         4         5
   1 1   Cl 1S          0.00000
   2        2S          0.00000   0.00000
   3        3S          0.00000   0.00000   0.00000
   4        4S          0.00000   0.00000   0.00000   0.00000
   5        5S          0.00000   0.00000   0.00000   0.00000   0.00000
   6        6PX         0.00000   0.00000   0.00000   0.00000   0.00000
   7        6PY         0.00000   0.00000   0.00000   0.00000   0.00000
   8        6PZ         0.00000   0.00000   0.00000   0.00000   0.00000
   9        7PX         0.00000   0.00000   0.00000   0.00000   0.00000
  10        7PY         0.00000   0.00000   0.00000   0.00000   0.00000
  11        7PZ         0.00000   0.00000   0.00000   0.00000   0.00000
  12        8PX         0.00000   0.00000   0.00000   0.00000   0.00000
  13        8PY         0.00000   0.00000   0.00000   0.00000   0.00000
  14        8PZ         0.00000   0.00000   0.00000   0.00000   0.00000
  15        9PX         0.00000   0.00000   0.00000   0.00000   0.00000
  16        9PY         0.00000   0.00000   0.00000   0.00000   0.00000
  17        9PZ         0.00000   0.00000   0.00000   0.00000   0.00000
  18       10PX         0.00000   0.00000   0.00000   0.00000   0.00000
  19       10PY         0.00000   0.00000   0.00000   0.00000   0.00000
  20       10PZ         0.00000   0.00000   0.00000   0.00000   0.00000
  21       11D 0        0.00000   0.00000   0.00000   0.00000   0.00000
  22       11D+1        0.00000   0.00000   0.00000   0.00000   0.00000
  23       11D-1        0.00000   0.00000   0.00000   0.00000   0.00000
  24       11D+2        0.00000   0.00000   0.00000   0.00000   0.00000
  25       11D-2        0.00000   0.00000   0.00000   0.00000   0.00000
  26       12D 0        0.00000   0.00000   0.00000   0.00000   0.00000
  27       12D+1        0.00000   0.00000   0.00000   0.00000   0.00000
  28       12D-1        0.00000   0.00000   0.00000   0.00000   0.00000
  29       12D+2        0.00000   0.00000   0.00000   0.00000   0.00000
  30       12D-2        0.00000   0.00000   0.00000   0.00000   0.00000
  31       13F 0        0.00000   0.00000   0.00000   0.00000   0.00000
  32       13F+1        0.00000   0.00000   0.00000   0.00000   0.00000
  33       13F-1        0.00000   0.00000   0.00000   0.00000   0.00000
  34       13F+2        0.00000   0.00000   0.00000   0.00000   0.00000
  35       13F-2        0.00000   0.00000   0.00000   0.00000   0.00000
  36       13F+3        0.00000   0.00000   0.00000   0.00000   0.00000
  37       13F-3        0.00000   0.00000   0.00000   0.00000   0.00000
  38 2   H  1S          0.00000  -0.00001  -0.00027   0.00527   0.00054
  39        2S          0.00002  -0.00013  -0.00153   0.00476  -0.02014
  40        3S         -0.00003   0.00021   0.00224  -0.00663  -0.01548
  41        4PX         0.00001  -0.00007  -0.00094   0.00364   0.00138
  42        4PY         0.00000   0.00000   0.00000   0.00000   0.00000
  43        4PZ         0.00000   0.00000   0.00000   0.00000   0.00000
                           6         7         8         9        10
   6        6PX         0.00000
   7        6PY         0.00000   0.00000
   8        6PZ         0.00000   0.00000   0.00000
   9        7PX         0.00000   0.00000   0.00000   0.00000
  10        7PY         0.00000   0.00000   0.00000   0.00000   0.00000
  11        7PZ         0.00000   0.00000   0.00000   0.00000   0.00000
  12        8PX         0.00000   0.00000   0.00000   0.00000   0.00000
  13        8PY         0.00000   0.00000   0.00000   0.00000   0.00000
  14        8PZ         0.00000   0.00000   0.00000   0.00000   0.00000
  15        9PX         0.00000   0.00000   0.00000   0.00000   0.00000
  16        9PY         0.00000   0.00000   0.00000   0.00000   0.00000
  17        9PZ         0.00000   0.00000   0.00000   0.00000   0.00000
  18       10PX         0.00000   0.00000   0.00000   0.00000   0.00000
  19       10PY         0.00000   0.00000   0.00000   0.00000   0.00000
  20       10PZ         0.00000   0.00000   0.00000   0.00000   0.00000
  21       11D 0        0.00000   0.00000   0.00000   0.00000   0.00000
  22       11D+1        0.00000   0.00000   0.00000   0.00000   0.00000
  23       11D-1        0.00000   0.00000   0.00000   0.00000   0.00000
  24       11D+2        0.00000   0.00000   0.00000   0.00000   0.00000
  25       11D-2        0.00000   0.00000   0.00000   0.00000   0.00000
  26       12D 0        0.00000   0.00000   0.00000   0.00000   0.00000
  27       12D+1        0.00000   0.00000   0.00000   0.00000   0.00000
  28       12D-1        0.00000   0.00000   0.00000   0.00000   0.00000
  29       12D+2        0.00000   0.00000   0.00000   0.00000   0.00000
  30       12D-2        0.00000   0.00000   0.00000   0.00000   0.00000
  31       13F 0        0.00000   0.00000   0.00000   0.00000   0.00000
  32       13F+1        0.00000   0.00000   0.00000   0.00000   0.00000
  33       13F-1        0.00000   0.00000   0.00000   0.00000   0.00000
  34       13F+2        0.00000   0.00000   0.00000   0.00000   0.00000
  35       13F-2        0.00000   0.00000   0.00000   0.00000   0.00000
  36       13F+3        0.00000   0.00000   0.00000   0.00000   0.00000
  37       13F-3        0.00000   0.00000   0.00000   0.00000   0.00000
  38 2   H  1S         -0.00010   0.00000   0.00000  -0.00037   0.00000
  39        2S         -0.00152   0.00000   0.00000  -0.00300   0.00000
  40        3S         -0.00019   0.00000   0.00000  -0.00038   0.00000
  41        4PX        -0.00012   0.00000   0.00000  -0.00027   0.00000
  42        4PY         0.00000  -0.00002   0.00000   0.00000  -0.00005
  43        4PZ         0.00000   0.00000  -0.00002   0.00000   0.00000
                          11        12        13        14        15
  11        7PZ         0.00000
  12        8PX         0.00000   0.00000
  13        8PY         0.00000   0.00000   0.00000
  14        8PZ         0.00000   0.00000   0.00000   0.00000
  15        9PX         0.00000   0.00000   0.00000   0.00000   0.00000
  16        9PY         0.00000   0.00000   0.00000   0.00000   0.00000
  17        9PZ         0.00000   0.00000   0.00000   0.00000   0.00000
  18       10PX         0.00000   0.00000   0.00000   0.00000   0.00000
  19       10PY         0.00000   0.00000   0.00000   0.00000   0.00000
  20       10PZ         0.00000   0.00000   0.00000   0.00000   0.00000
  21       11D 0        0.00000   0.00000   0.00000   0.00000   0.00000
  22       11D+1        0.00000   0.00000   0.00000   0.00000   0.00000
  23       11D-1        0.00000   0.00000   0.00000   0.00000   0.00000
  24       11D+2        0.00000   0.00000   0.00000   0.00000   0.00000
  25       11D-2        0.00000   0.00000   0.00000   0.00000   0.00000
  26       12D 0        0.00000   0.00000   0.00000   0.00000   0.00000
  27       12D+1        0.00000   0.00000   0.00000   0.00000   0.00000
  28       12D-1        0.00000   0.00000   0.00000   0.00000   0.00000
  29       12D+2        0.00000   0.00000   0.00000   0.00000   0.00000
  30       12D-2        0.00000   0.00000   0.00000   0.00000   0.00000
  31       13F 0        0.00000   0.00000   0.00000   0.00000   0.00000
  32       13F+1        0.00000   0.00000   0.00000   0.00000   0.00000
  33       13F-1        0.00000   0.00000   0.00000   0.00000   0.00000
  34       13F+2        0.00000   0.00000   0.00000   0.00000   0.00000
  35       13F-2        0.00000   0.00000   0.00000   0.00000   0.00000
  36       13F+3        0.00000   0.00000   0.00000   0.00000   0.00000
  37       13F-3        0.00000   0.00000   0.00000   0.00000   0.00000
  38 2   H  1S          0.00000   0.00664   0.00000   0.00000   0.04396
  39        2S          0.00000   0.02468   0.00000   0.00000   0.11008
  40        3S          0.00000   0.00280   0.00000   0.00000   0.01475
  41        4PX         0.00000   0.00246   0.00000   0.00000   0.00607
  42        4PY         0.00000   0.00000   0.00068   0.00000   0.00000
  43        4PZ        -0.00005   0.00000   0.00000   0.00068   0.00000
                          16        17        18        19        20
  16        9PY         0.00000
  17        9PZ         0.00000   0.00000
  18       10PX         0.00000   0.00000   0.00000
  19       10PY         0.00000   0.00000   0.00000   0.00000
  20       10PZ         0.00000   0.00000   0.00000   0.00000   0.00000
  21       11D 0        0.00000   0.00000   0.00000   0.00000   0.00000
  22       11D+1        0.00000   0.00000   0.00000   0.00000   0.00000
  23       11D-1        0.00000   0.00000   0.00000   0.00000   0.00000
  24       11D+2        0.00000   0.00000   0.00000   0.00000   0.00000
  25       11D-2        0.00000   0.00000   0.00000   0.00000   0.00000
  26       12D 0        0.00000   0.00000   0.00000   0.00000   0.00000
  27       12D+1        0.00000   0.00000   0.00000   0.00000   0.00000
  28       12D-1        0.00000   0.00000   0.00000   0.00000   0.00000
  29       12D+2        0.00000   0.00000   0.00000   0.00000   0.00000
  30       12D-2        0.00000   0.00000   0.00000   0.00000   0.00000
  31       13F 0        0.00000   0.00000   0.00000   0.00000   0.00000
  32       13F+1        0.00000   0.00000   0.00000   0.00000   0.00000
  33       13F-1        0.00000   0.00000   0.00000   0.00000   0.00000
  34       13F+2        0.00000   0.00000   0.00000   0.00000   0.00000
  35       13F-2        0.00000   0.00000   0.00000   0.00000   0.00000
  36       13F+3        0.00000   0.00000   0.00000   0.00000   0.00000
  37       13F-3        0.00000   0.00000   0.00000   0.00000   0.00000
  38 2   H  1S          0.00000   0.00000   0.02140   0.00000   0.00000
  39        2S          0.00000   0.00000   0.06235   0.00000   0.00000
  40        3S          0.00000   0.00000   0.01245   0.00000   0.00000
  41        4PX         0.00000   0.00000   0.00045   0.00000   0.00000
  42        4PY         0.00373   0.00000   0.00000   0.00284   0.00000
  43        4PZ         0.00000   0.00373   0.00000   0.00000   0.00284
                          21        22        23        24        25
  21       11D 0        0.00000
  22       11D+1        0.00000   0.00000
  23       11D-1        0.00000   0.00000   0.00000
  24       11D+2        0.00000   0.00000   0.00000   0.00000
  25       11D-2        0.00000   0.00000   0.00000   0.00000   0.00000
  26       12D 0        0.00000   0.00000   0.00000   0.00000   0.00000
  27       12D+1        0.00000   0.00000   0.00000   0.00000   0.00000
  28       12D-1        0.00000   0.00000   0.00000   0.00000   0.00000
  29       12D+2        0.00000   0.00000   0.00000   0.00000   0.00000
  30       12D-2        0.00000   0.00000   0.00000   0.00000   0.00000
  31       13F 0        0.00000   0.00000   0.00000   0.00000   0.00000
  32       13F+1        0.00000   0.00000   0.00000   0.00000   0.00000
  33       13F-1        0.00000   0.00000   0.00000   0.00000   0.00000
  34       13F+2        0.00000   0.00000   0.00000   0.00000   0.00000
  35       13F-2        0.00000   0.00000   0.00000   0.00000   0.00000
  36       13F+3        0.00000   0.00000   0.00000   0.00000   0.00000
  37       13F-3        0.00000   0.00000   0.00000   0.00000   0.00000
  38 2   H  1S          0.00061   0.00000   0.00000   0.00182   0.00000
  39        2S          0.00096   0.00000   0.00000   0.00288   0.00000
  40        3S          0.00004   0.00000   0.00000   0.00012   0.00000
  41        4PX         0.00015   0.00000   0.00000   0.00044   0.00000
  42        4PY         0.00000   0.00000   0.00000   0.00000   0.00003
  43        4PZ         0.00000   0.00003   0.00000   0.00000   0.00000
                          26        27        28        29        30
  26       12D 0        0.00000
  27       12D+1        0.00000   0.00000
  28       12D-1        0.00000   0.00000   0.00000
  29       12D+2        0.00000   0.00000   0.00000   0.00000
  30       12D-2        0.00000   0.00000   0.00000   0.00000   0.00000
  31       13F 0        0.00000   0.00000   0.00000   0.00000   0.00000
  32       13F+1        0.00000   0.00000   0.00000   0.00000   0.00000
  33       13F-1        0.00000   0.00000   0.00000   0.00000   0.00000
  34       13F+2        0.00000   0.00000   0.00000   0.00000   0.00000
  35       13F-2        0.00000   0.00000   0.00000   0.00000   0.00000
  36       13F+3        0.00000   0.00000   0.00000   0.00000   0.00000
  37       13F-3        0.00000   0.00000   0.00000   0.00000   0.00000
  38 2   H  1S          0.00159   0.00000   0.00000   0.00478   0.00000
  39        2S          0.00236   0.00000   0.00000   0.00709   0.00000
  40        3S          0.00015   0.00000   0.00000   0.00044   0.00000
  41        4PX         0.00008   0.00000   0.00000   0.00024   0.00000
  42        4PY         0.00000   0.00000   0.00000   0.00000   0.00030
  43        4PZ         0.00000   0.00030   0.00000   0.00000   0.00000
                          31        32        33        34        35
  31       13F 0        0.00000
  32       13F+1        0.00000   0.00000
  33       13F-1        0.00000   0.00000   0.00000
  34       13F+2        0.00000   0.00000   0.00000   0.00000
  35       13F-2        0.00000   0.00000   0.00000   0.00000   0.00000
  36       13F+3        0.00000   0.00000   0.00000   0.00000   0.00000
  37       13F-3        0.00000   0.00000   0.00000   0.00000   0.00000
  38 2   H  1S          0.00000   0.00065   0.00000   0.00000   0.00000
  39        2S          0.00000   0.00044   0.00000   0.00000   0.00000
  40        3S          0.00000   0.00001   0.00000   0.00000   0.00000
  41        4PX         0.00000   0.00005   0.00000   0.00000   0.00000
  42        4PY         0.00000   0.00000   0.00001   0.00000   0.00000
  43        4PZ         0.00004   0.00000   0.00000   0.00006   0.00000
                          36        37        38        39        40
  36       13F+3        0.00000
  37       13F-3        0.00000   0.00000
  38 2   H  1S          0.00108   0.00000   0.00000
  39        2S          0.00073   0.00000   0.00000   0.00000
  40        3S          0.00001   0.00000   0.00000   0.00000   0.00000
  41        4PX         0.00008   0.00000   0.00000   0.00000   0.00000
  42        4PY         0.00000   0.00009   0.00000   0.00000   0.00000
  43        4PZ         0.00000   0.00000   0.00000   0.00000   0.00000
                          41        42        43
  41        4PX         0.00000
  42        4PY         0.00000   0.00000
  43        4PZ         0.00000   0.00000   0.00000
     Bonding Gross orbital populations:
                           1
   1 1   Cl 1S         -0.00000
   2        2S          0.00001
   3        3S         -0.00050
   4        4S          0.00704
   5        5S         -0.03370
   6        6PX        -0.00194
   7        6PY        -0.00002
   8        6PZ        -0.00002
   9        7PX        -0.00402
  10        7PY        -0.00005
  11        7PZ        -0.00005
  12        8PX         0.03658
  13        8PY         0.00068
  14        8PZ         0.00068
  15        9PX         0.17487
  16        9PY         0.00373
  17        9PZ         0.00373
  18       10PX         0.09666
  19       10PY         0.00284
  20       10PZ         0.00284
  21       11D 0        0.00175
  22       11D+1        0.00003
  23       11D-1        0.00000
  24       11D+2        0.00526
  25       11D-2        0.00003
  26       12D 0        0.00418
  27       12D+1        0.00030
  28       12D-1        0.00000
  29       12D+2        0.01255
  30       12D-2        0.00030
  31       13F 0        0.00004
  32       13F+1        0.00114
  33       13F-1        0.00001
  34       13F+2        0.00006
  35       13F-2        0.00000
  36       13F+3        0.00190
  37       13F-3        0.00009
  38 2   H  1S          0.08760
  39        2S          0.19004
  40        3S          0.01048
  41        4PX         0.01366
  42        4PY         0.00761
  43        4PZ         0.00761
          Bonding Condensed to atoms (all electrons):
               1          2
     1  Cl   0.000000   0.317007
     2  H    0.317007   0.000000
 Bonding Mulliken charges:
               1
     1  Cl  16.682993
     2  H    0.682993
 Sum of Bonding Mulliken charges =  17.36599
 Bonding Mulliken charges with hydrogens summed into heavy atoms:
               1
     1  Cl  17.365985
 GSVD:  LWork=       -2193 too small for GESVD, short by        9890 words or        9890 for optimal perf.
 Atomic Valencies and Mayer Atomic Bond Orders:
               1          2
     1  Cl   0.943501   0.943501
     2  H    0.943501   0.943501
 Lowdin Atomic Charges:
               1
     1  Cl  -0.047346
     2  H    0.047346
 Sum of Lowdin charges  =  -0.00000
 Lowdin atomic charges with hydrogens summed into heavy atoms:
               1
     1  Cl  -0.000000
     2  H    0.000000
 Sum of Lowdin charges  =  -0.00000
 Dipole moment from Lowdin charges (Debye):
    X=    -0.2907    Y=     0.0000    Z=     0.0000  Tot=     0.2907
 Electronic spatial extent (au):  <R**2>=             33.9113
 Charge=              0.0000 electrons
 Dipole moment (field-independent basis, Debye):
    X=             -1.2592    Y=             -0.0000    Z=              0.0000  Tot=              1.2592
 Quadrupole moment (field-independent basis, Debye-Ang):
   XX=            -10.2169   YY=            -13.9465   ZZ=            -13.9465
   XY=              0.0000   XZ=             -0.0000   YZ=             -0.0000
 Traceless Quadrupole moment (field-independent basis, Debye-Ang):
   XX=              2.4864   YY=             -1.2432   ZZ=             -1.2432
   XY=              0.0000   XZ=             -0.0000   YZ=             -0.0000
 Octapole moment (field-independent basis, Debye-Ang**2):
  XXX=             -1.7846  YYY=             -0.0000  ZZZ=              0.0000  XYY=              0.2506
  XXY=             -0.0000  XXZ=              0.0000  XZZ=              0.2506  YZZ=             -0.0000
  YYZ=              0.0000  XYZ=             -0.0000
 Hexadecapole moment (field-independent basis, Debye-Ang**3):
 XXXX=            -13.0843 YYYY=            -15.8880 ZZZZ=            -15.8880 XXXY=              0.0000
 XXXZ=             -0.0000 YYYX=              0.0000 YYYZ=             -0.0000 ZZZX=             -0.0000
 ZZZY=             -0.0000 XXYY=             -5.6020 XXZZ=             -5.6020 YYZZ=             -5.2958
 XXYZ=             -0.0000 YYXZ=             -0.0000 ZZXY=              0.0000
 N-N= 7.036536711573D+00 E-N=-1.110345733675D+03  KE= 4.603288762367D+02
 Orbital energies and kinetic energies (alpha):
                                 1                 2
   1         O              -102.618116        137.010100
   2         O                -9.773101         21.557344
   3         O                -7.521278         20.651921
   4         O                -7.516055         20.693954
   5         O                -7.516055         20.693954
   6         O                -0.938578          2.896601
   7         O                -0.537909          2.029850
   8         O                -0.398792          2.315357
   9         O                -0.398792          2.315357
  10         V                 0.029580          0.995877
  11         V                 0.203727          0.944112
  12         V                 0.379793          1.643133
  13         V                 0.379793          1.643133
  14         V                 0.385967          1.889196
  15         V                 0.438550          1.480263
  16         V                 0.438550          1.480263
  17         V                 0.478483          1.513665
  18         V                 0.478789          1.513204
  19         V                 0.662966          2.934312
  20         V                 0.777332          2.612992
  21         V                 1.513286          2.588124
  22         V                 1.513286          2.588124
  23         V                 1.724959          3.567807
  24         V                 1.792148          4.595093
  25         V                 1.792148          4.595093
  26         V                 1.794591          4.838194
  27         V                 1.794768          4.837761
  28         V                 1.940823          4.260644
  29         V                 2.114041          3.176782
  30         V                 2.114679          3.176809
  31         V                 2.141656          3.177001
  32         V                 2.141656          3.177001
  33         V                 2.201077          6.502258
  34         V                 2.211258          6.820469
  35         V                 2.211258          6.820469
  36         V                 2.499678          3.692426
  37         V                 2.499678          3.692426
  38         V                 2.524400          4.385246
  39         V                 3.294131          5.003437
  40         V                10.748756         33.647082
  41         V                10.748756         33.647082
  42         V                10.824515         33.767942
  43         V                24.598135         43.849762
 Total kinetic energy from orbitals= 4.603288762367D+02

 Test job not archived.
 1\1\GINC-NODE7\FOpt\RM08HX\def2TZVP\Cl1H1\SD\23-Dec-2025\0\\# M08HX/de
 f2tzvp SCF=Tight opt=(tight,maxcycles=300) freq=(raman,hpmodes) nosymm
  int=finegrid density pop=(full,bonding) iop(6/80=1)\\HCl M08HX_def2tz
 vp\\0,1\Cl,0.0392358169,0.,0.\H,-1.2392358169,0.,0.\\Version=ES64L-G16
 RevA.03\HF=-460.8003518\RMSD=2.842e-09\RMSF=3.158e-08\Dipole=-0.495416
 4,0.,0.\Quadrupole=1.8485957,-0.9242979,-0.9242979,0.,0.,0.\PG=C*V [C*
 (H1Cl1)]\\@


 I WANT TO KNOW HOW GOD CREATED THE WORLD.  I AM NOT INTERESTED IN
 THIS OR THAT PHENOMENON, IN THE SPECTRUM OF THIS OR THAT ELEMENT.
 I WANT TO KNOW HIS THOUGHTS, THE REST ARE DETAILS.
     -- ALBERT EINSTEIN
 Job cpu time:       0 days  0 hours  2 minutes 20.8 seconds.
 Elapsed time:       0 days  0 hours  0 minutes  6.8 seconds.
 File lengths (MBytes):  RWF=      6 Int=      0 D2E=      0 Chk=      2 Scr=      1
 Normal termination of Gaussian 16 at Tue Dec 23 16:28:11 2025.
 Link1:  Proceeding to internal job step number  2.
 ----------------------------------------------------------------------
 #N Geom=AllCheck Guess=TCheck SCRF=Check Test GenChk RM08HX/def2TZVP F
 req
 ----------------------------------------------------------------------
 1/6=300,7=10,10=4,29=7,30=1,38=1,40=1/1,3;
 2/12=2,15=1,40=1/2;
 3/5=44,7=101,11=2,14=-4,25=1,30=1,70=2,71=2,74=-74,75=-4,116=1,140=1/1,2,3;
 4/5=101/1;
 5/5=2,32=2,38=6,98=1/2;
 8/6=4,10=90,11=11/1;
 10/13=10,15=4,31=1/2;
 11/6=3,8=1,9=11,15=111,16=1,31=1/1,2,10;
 10/6=1,31=1/2;
 6/7=3,22=-1,27=20,28=1/1;
 7/8=11,10=1,25=1,30=1/1,2,3,16;
 1/6=300,7=10,10=4,30=1/3;
 99//99;
 Structure from the checkpoint file:  "HCl_M08HX_def2tzvp.chk"
 ------------------
 HCl M08HX_def2tzvp
 ------------------
 Charge =  0 Multiplicity = 1
 Redundant internal coordinates found in file.  (old form).
 Cl,0,0.0392358169,0.,0.
 H,0,-1.2392358169,0.,0.
 Recover connectivity data from disk.

 GradGradGradGradGradGradGradGradGradGradGradGradGradGradGradGradGradGrad
 Berny optimization.
 Initialization pass.
                           ----------------------------
                           !    Initial Parameters    !
                           ! (Angstroms and Degrees)  !
 --------------------------                            --------------------------
 ! Name  Definition              Value          Derivative Info.                !
 --------------------------------------------------------------------------------
 ! R1    R(1,2)                  1.2785         calculate D2E/DX2 analytically  !
 --------------------------------------------------------------------------------
 Trust Radius=3.00D-01 FncErr=1.00D-07 GrdErr=1.00D-07 EigMax=2.50D+02 EigMin=1.00D-04
 Number of steps in this run=      2 maximum allowed number of steps=      2.
 GradGradGradGradGradGradGradGradGradGradGradGradGradGradGradGradGradGrad

                          Input orientation:                          
 ---------------------------------------------------------------------
 Center     Atomic      Atomic             Coordinates (Angstroms)
 Number     Number       Type             X           Y           Z
 ---------------------------------------------------------------------
      1         17           0        0.039236    0.000000    0.000000
      2          1           0       -1.239236    0.000000    0.000000
 ---------------------------------------------------------------------
 Symmetry turned off by external request.
 Stoichiometry    ClH
 Framework group  C*V[C*(HCl)]
 Deg. of freedom     1
 Full point group                 C*V     NOp   4
 Rotational constants (GHZ):           0.0000000         315.6381838         315.6381838
 Standard basis: def2TZVP (5D, 7F)
    43 basis functions,    77 primitive gaussians,    48 cartesian basis functions
     9 alpha electrons        9 beta electrons
       nuclear repulsion energy         7.0365367116 Hartrees.
 NAtoms=    2 NActive=    2 NUniq=    2 SFac= 1.00D+00 NAtFMM=   60 NAOKFM=F Big=F
 Integral buffers will be    131072 words long.
 Raffenetti 2 integral format.
 Two-electron integral symmetry is turned off.
 One-electron integrals computed using PRISM.
   1 Symmetry operations used in ECPInt.
 ECPInt:  NShTT=     153 NPrTT=     600 LenC2=     154 LenP2D=     587.
 LDataN:  DoStor=T MaxTD1= 6 Len=  172
 NBasis=    43 RedAO= T EigKep=  1.84D-02  NBF=    43
 NBsUse=    43 1.00D-06 EigRej= -1.00D+00 NBFU=    43
 Initial guess from the checkpoint file:  "HCl_M08HX_def2tzvp.chk"
 B after Tr=     0.000000    0.000000    0.000000
         Rot=    1.000000    0.000000    0.000000    0.000000 Ang=   0.00 deg.
 Keep R1 ints in memory in canonical form, NReq=21316819.
 Requested convergence on RMS density matrix=1.00D-08 within 128 cycles.
 Requested convergence on MAX density matrix=1.00D-06.
 Requested convergence on             energy=1.00D-06.
 No special actions if energy rises.
 SCF Done:  E(RM08HX) =  -460.800351772     A.U. after    1 cycles
            NFock=  1  Conv=0.44D-09     -V/T= 2.0010
 DoSCS=F DFT=T ScalE2(SS,OS)=  1.000000  1.000000
 Range of M.O.s used for correlation:     1    43
 NBasis=    43 NAE=     9 NBE=     9 NFC=     0 NFV=     0
 NROrb=     43 NOA=     9 NOB=     9 NVA=    34 NVB=    34
          Differentiating once with respect to electric field.
                with respect to dipole field.
          Electric field/nuclear overlap derivatives assumed to be zero.
 Keep R1 ints in memory in canonical form, NReq=21276704.
          There are     3 degrees of freedom in the 1st order CPHF.  IDoFFX=0 NUNeed=     3.
      3 vectors produced by pass  0 Test12= 1.02D-14 3.33D-08 XBig12= 7.08D+00 2.02D+00.
 AX will form     3 AO Fock derivatives at one time.
      3 vectors produced by pass  1 Test12= 1.02D-14 3.33D-08 XBig12= 7.92D-01 4.75D-01.
      3 vectors produced by pass  2 Test12= 1.02D-14 3.33D-08 XBig12= 9.47D-03 5.24D-02.
      3 vectors produced by pass  3 Test12= 1.02D-14 3.33D-08 XBig12= 7.48D-04 1.40D-02.
      3 vectors produced by pass  4 Test12= 1.02D-14 3.33D-08 XBig12= 4.53D-05 3.21D-03.
      3 vectors produced by pass  5 Test12= 1.02D-14 3.33D-08 XBig12= 3.93D-07 2.10D-04.
      3 vectors produced by pass  6 Test12= 1.02D-14 3.33D-08 XBig12= 6.63D-09 4.84D-05.
      3 vectors produced by pass  7 Test12= 1.02D-14 3.33D-08 XBig12= 9.50D-11 6.06D-06.
      3 vectors produced by pass  8 Test12= 1.02D-14 3.33D-08 XBig12= 1.30D-12 4.17D-07.
      1 vectors produced by pass  9 Test12= 1.02D-14 3.33D-08 XBig12= 1.06D-14 5.36D-08.
 InvSVY:  IOpt=1 It=  1 EMax= 4.44D-16
 Solved reduced A of dimension    28 with     3 vectors.
 End of Minotr F.D. properties file   721 does not exist.
 End of Minotr F.D. properties file   722 does not exist.
 End of Minotr F.D. properties file   788 does not exist.
   1 Symmetry operations used in ECPInt.
 ECPInt:  NShTT=     153 NPrTT=     600 LenC2=     154 LenP2D=     587.
 LDataN:  DoStor=T MaxTD1= 7 Len=  274
 Symmetrizing basis deriv contribution to polar:
 IMax=3 JMax=2 DiffMx= 0.00D+00
 G2DrvN: will do     3 centers at a time, making    1 passes.
 PxScal for G2LodP:  IOpCl= 0 ISclPx=1 IMOff=     1 NMtTot=     4 NTT=     946 ScalPx= 1.00D+00
 Calling FoFCou, ICntrl=  3107 FMM=F I1Cent=   0 AccDes= 0.00D+00.
 End of G2Drv F.D. properties file   721 does not exist.
 End of G2Drv F.D. properties file   722 does not exist.
 End of G2Drv F.D. properties file   788 does not exist.
          IDoAtm=11
          Differentiating once with respect to electric field.
                with respect to dipole field.
          Differentiating once with respect to nuclear coordinates.
 Keep R1 ints in memory in canonical form, NReq=21275166.
          There are     9 degrees of freedom in the 1st order CPHF.  IDoFFX=5 NUNeed=     9.
 Will reuse    3 saved solutions.
      3 vectors produced by pass  0 Test12= 3.40D-15 1.11D-08 XBig12= 1.90D-02 7.97D-02.
 AX will form     3 AO Fock derivatives at one time.
      3 vectors produced by pass  1 Test12= 3.40D-15 1.11D-08 XBig12= 2.51D-03 2.78D-02.
      3 vectors produced by pass  2 Test12= 3.40D-15 1.11D-08 XBig12= 1.17D-04 4.36D-03.
      3 vectors produced by pass  3 Test12= 3.40D-15 1.11D-08 XBig12= 7.37D-06 1.46D-03.
      3 vectors produced by pass  4 Test12= 3.40D-15 1.11D-08 XBig12= 4.60D-07 2.99D-04.
      3 vectors produced by pass  5 Test12= 3.40D-15 1.11D-08 XBig12= 2.62D-09 1.92D-05.
      3 vectors produced by pass  6 Test12= 3.40D-15 1.11D-08 XBig12= 2.42D-11 1.48D-06.
      3 vectors produced by pass  7 Test12= 3.40D-15 1.11D-08 XBig12= 5.31D-13 2.14D-07.
      1 vectors produced by pass  8 Test12= 3.40D-15 1.11D-08 XBig12= 5.76D-15 2.85D-08.
 InvSVY:  IOpt=1 It=  1 EMax= 1.11D-16
 Solved reduced A of dimension    25 with     3 vectors.
 Isotropic polarizability for W=    0.000000       11.69 Bohr**3.
 End of Minotr F.D. properties file   721 does not exist.
 End of Minotr F.D. properties file   722 does not exist.
 End of Minotr F.D. properties file   788 does not exist.

 **********************************************************************

            Population analysis using the SCF density.

 **********************************************************************

 Alpha  occ. eigenvalues -- -102.61812  -9.77310  -7.52128  -7.51605  -7.51605
 Alpha  occ. eigenvalues --   -0.93858  -0.53791  -0.39879  -0.39879
 Alpha virt. eigenvalues --    0.02958   0.20373   0.37979   0.37979   0.38597
 Alpha virt. eigenvalues --    0.43855   0.43855   0.47848   0.47879   0.66297
 Alpha virt. eigenvalues --    0.77733   1.51329   1.51329   1.72496   1.79215
 Alpha virt. eigenvalues --    1.79215   1.79459   1.79477   1.94082   2.11404
 Alpha virt. eigenvalues --    2.11468   2.14166   2.14166   2.20108   2.21126
 Alpha virt. eigenvalues --    2.21126   2.49968   2.49968   2.52440   3.29413
 Alpha virt. eigenvalues --   10.74876  10.74876  10.82451  24.59813
     Molecular Orbital Coefficients:
                           1         2         3         4         5
                           O         O         O         O         O
     Eigenvalues --  -102.61812  -9.77310  -7.52128  -7.51605  -7.51605
   1 1   Cl 1S          1.00045  -0.29494  -0.00137   0.00000  -0.00000
   2        2S         -0.03426  -0.21220  -0.00121   0.00000   0.00000
   3        3S         -0.01183   0.83568   0.00409  -0.00000   0.00000
   4        4S          0.00389   0.02735  -0.00060   0.00000  -0.00000
   5        5S         -0.00165  -0.00794   0.00055  -0.00000   0.00000
   6        6PX        -0.00006  -0.00295   0.71088  -0.00000  -0.00000
   7        6PY         0.00000  -0.00000   0.00000   0.34923   0.62036
   8        6PZ        -0.00000   0.00000  -0.00000   0.62036  -0.34923
   9        7PX        -0.00005  -0.00211   0.34228  -0.00000  -0.00000
  10        7PY        -0.00000   0.00000   0.00000   0.16791   0.29826
  11        7PZ         0.00000  -0.00000  -0.00000   0.29826  -0.16791
  12        8PX         0.00035   0.00048   0.07454  -0.00000  -0.00000
  13        8PY         0.00000   0.00000   0.00000   0.03528   0.06266
  14        8PZ        -0.00000   0.00000  -0.00000   0.06266  -0.03528
  15        9PX        -0.00099  -0.00313  -0.01362   0.00000   0.00000
  16        9PY        -0.00000   0.00000  -0.00000  -0.00546  -0.00970
  17        9PZ         0.00000  -0.00000   0.00000  -0.00970   0.00546
  18       10PX         0.00039   0.00181   0.00385   0.00000  -0.00000
  19       10PY         0.00000  -0.00000   0.00000   0.00168   0.00299
  20       10PZ        -0.00000   0.00000   0.00000   0.00299  -0.00168
  21       11D 0       -0.00004  -0.00056   0.00043  -0.00000   0.00000
  22       11D+1        0.00000  -0.00000   0.00000  -0.00080   0.00045
  23       11D-1        0.00000  -0.00000   0.00000   0.00000   0.00000
  24       11D+2        0.00006   0.00098  -0.00074  -0.00000   0.00000
  25       11D-2       -0.00000  -0.00000  -0.00000  -0.00045  -0.00080
  26       12D 0       -0.00019  -0.00029  -0.00072   0.00000   0.00000
  27       12D+1        0.00000   0.00000  -0.00000   0.00050  -0.00028
  28       12D-1       -0.00000   0.00000   0.00000  -0.00000  -0.00000
  29       12D+2        0.00032   0.00051   0.00125   0.00000  -0.00000
  30       12D-2       -0.00000   0.00000   0.00000   0.00028   0.00050
  31       13F 0       -0.00000   0.00000  -0.00000  -0.00002   0.00001
  32       13F+1        0.00014   0.00049   0.00014   0.00000   0.00000
  33       13F-1       -0.00000   0.00000  -0.00000  -0.00001  -0.00001
  34       13F+2        0.00000  -0.00000   0.00000   0.00003  -0.00002
  35       13F-2        0.00000   0.00000  -0.00000  -0.00000   0.00000
  36       13F+3       -0.00018  -0.00063  -0.00018   0.00000   0.00000
  37       13F-3        0.00000  -0.00000   0.00000   0.00002   0.00004
  38 2   H  1S          0.00000   0.00016  -0.00080   0.00000  -0.00000
  39        2S         -0.00095  -0.00272  -0.00268  -0.00000   0.00000
  40        3S          0.00078   0.00320   0.00175   0.00000  -0.00000
  41        4PX        -0.00063  -0.00196  -0.00081   0.00000   0.00000
  42        4PY         0.00000   0.00000  -0.00000   0.00016   0.00028
  43        4PZ        -0.00000   0.00000  -0.00000   0.00028  -0.00016
                           6         7         8         9        10
                           O         O         O         O         V
     Eigenvalues --    -0.93858  -0.53791  -0.39879  -0.39879   0.02958
   1 1   Cl 1S          0.08588   0.02655  -0.00000   0.00000  -0.02321
   2        2S          0.07188   0.02311  -0.00000   0.00000  -0.02441
   3        3S         -0.48612  -0.15482   0.00000  -0.00000   0.13584
   4        4S          0.65138   0.21064  -0.00000   0.00000  -0.09048
   5        5S          0.44528   0.24771  -0.00000  -0.00000  -0.94690
   6        6PX         0.02744  -0.16907   0.00000  -0.00000  -0.09409
   7        6PY         0.00000   0.00000   0.00778  -0.20679   0.00000
   8        6PZ        -0.00000  -0.00000  -0.20679  -0.00778  -0.00000
   9        7PX         0.01438  -0.08273   0.00000   0.00000  -0.04920
  10        7PY        -0.00000   0.00000   0.00375  -0.09968  -0.00000
  11        7PZ        -0.00000  -0.00000  -0.09968  -0.00375  -0.00000
  12        8PX        -0.03200   0.20877   0.00000  -0.00000   0.14231
  13        8PY        -0.00000  -0.00000  -0.00989   0.26273   0.00000
  14        8PZ         0.00000   0.00000   0.26273   0.00989   0.00000
  15        9PX        -0.05952   0.41751  -0.00000   0.00000   0.20630
  16        9PY        -0.00000  -0.00000  -0.02032   0.53996  -0.00000
  17        9PZ         0.00000   0.00000   0.53996   0.02032  -0.00000
  18       10PX        -0.01528   0.18995   0.00000   0.00000   0.76763
  19       10PY        -0.00000  -0.00000  -0.01380   0.36681  -0.00000
  20       10PZ         0.00000   0.00000   0.36681   0.01380   0.00000
  21       11D 0       -0.00965   0.02257   0.00000   0.00000  -0.02337
  22       11D+1       -0.00000   0.00000  -0.00556  -0.00021   0.00000
  23       11D-1       -0.00000  -0.00000  -0.00000   0.00000  -0.00000
  24       11D+2        0.01672  -0.03909   0.00000   0.00000   0.04048
  25       11D-2        0.00000  -0.00000   0.00021  -0.00556  -0.00000
  26       12D 0       -0.00817   0.01909   0.00000  -0.00000  -0.01987
  27       12D+1       -0.00000   0.00000  -0.02035  -0.00077   0.00000
  28       12D-1       -0.00000  -0.00000  -0.00000   0.00000   0.00000
  29       12D+2        0.01415  -0.03306   0.00000  -0.00000   0.03441
  30       12D-2       -0.00000  -0.00000   0.00077  -0.02035  -0.00000
  31       13F 0       -0.00000  -0.00000  -0.00486  -0.00018   0.00000
  32       13F+1        0.00480  -0.00868   0.00000  -0.00000  -0.00039
  33       13F-1       -0.00000  -0.00000   0.00008  -0.00208   0.00000
  34       13F+2       -0.00000   0.00000   0.00640   0.00024   0.00000
  35       13F-2       -0.00000   0.00000   0.00000   0.00000   0.00000
  36       13F+3       -0.00620   0.01121   0.00000   0.00000   0.00051
  37       13F-3        0.00000   0.00000  -0.00029   0.00776   0.00000
  38 2   H  1S          0.09027  -0.15702  -0.00000   0.00000   0.10186
  39        2S          0.09507  -0.25646  -0.00000   0.00000   0.11806
  40        3S          0.00632  -0.05976   0.00000   0.00000   1.55508
  41        4PX         0.01614  -0.01694  -0.00000   0.00000  -0.01533
  42        4PY        -0.00000  -0.00000  -0.00070   0.01853   0.00000
  43        4PZ         0.00000  -0.00000   0.01853   0.00070   0.00000
                          11        12        13        14        15
                           V         V         V         V         V
     Eigenvalues --     0.20373   0.37979   0.37979   0.38597   0.43855
   1 1   Cl 1S         -0.00412  -0.00000   0.00000  -0.02022  -0.00000
   2        2S         -0.00364  -0.00000   0.00000  -0.01331  -0.00000
   3        3S          0.02448   0.00000  -0.00000   0.12887   0.00000
   4        4S          0.02254  -0.00000   0.00000  -0.31849  -0.00000
   5        5S         -0.07010   0.00000   0.00000  -0.12733   0.00000
   6        6PX        -0.03841   0.00000  -0.00000   0.16231   0.00000
   7        6PY         0.00000   0.05279   0.15009   0.00000   0.00021
   8        6PZ        -0.00000   0.15009  -0.05279  -0.00000   0.00049
   9        7PX        -0.01543   0.00000  -0.00000   0.03122   0.00000
  10        7PY         0.00000   0.01009   0.02870   0.00000  -0.00178
  11        7PZ         0.00000   0.02870  -0.01009  -0.00000  -0.00414
  12        8PX         0.03409   0.00000   0.00000  -0.03779  -0.00000
  13        8PY        -0.00000  -0.01321  -0.03757  -0.00000   0.00713
  14        8PZ         0.00000  -0.03757   0.01321   0.00000   0.01655
  15        9PX         0.15542  -0.00000   0.00000  -1.18324  -0.00000
  16        9PY        -0.00000  -0.37945  -1.07875  -0.00000  -0.02272
  17        9PZ         0.00000  -1.07875   0.37945   0.00000  -0.05274
  18       10PX         0.50516   0.00000  -0.00000   1.64094   0.00000
  19       10PY        -0.00000   0.45447   1.29202   0.00000   0.04511
  20       10PZ        -0.00000   1.29202  -0.45447  -0.00000   0.10470
  21       11D 0       -0.07702  -0.00000   0.00000   0.00490   0.00000
  22       11D+1        0.00000  -0.00505   0.00178  -0.00000   0.21697
  23       11D-1        0.00000   0.00000   0.00000   0.00000  -0.00000
  24       11D+2        0.13341  -0.00000   0.00000  -0.00849  -0.00000
  25       11D-2       -0.00000  -0.00178  -0.00505  -0.00000   0.09349
  26       12D 0       -0.07413   0.00000  -0.00000   0.07327   0.00000
  27       12D+1        0.00000  -0.05467   0.01923   0.00000   0.73989
  28       12D-1        0.00000   0.00000   0.00000   0.00000  -0.00000
  29       12D+2        0.12840  -0.00000   0.00000  -0.12691   0.00000
  30       12D-2       -0.00000  -0.01923  -0.05467  -0.00000   0.31881
  31       13F 0        0.00000   0.00077  -0.00027   0.00000   0.00969
  32       13F+1       -0.00929   0.00000  -0.00000  -0.00156   0.00000
  33       13F-1        0.00000   0.00014   0.00039   0.00000   0.00176
  34       13F+2        0.00000  -0.00109   0.00038   0.00000  -0.01268
  35       13F-2        0.00000   0.00000  -0.00000  -0.00000   0.00000
  36       13F+3        0.01199  -0.00000  -0.00000   0.00202  -0.00000
  37       13F-3       -0.00000  -0.00045  -0.00128  -0.00000  -0.00664
  38 2   H  1S          0.11658  -0.00000   0.00000  -0.05426   0.00000
  39        2S          1.23477  -0.00000   0.00000  -0.10009  -0.00000
  40        3S         -1.02522   0.00000  -0.00000   0.79200   0.00000
  41        4PX         0.03748  -0.00000  -0.00000   0.02022  -0.00000
  42        4PY        -0.00000   0.00050   0.00141   0.00000  -0.03577
  43        4PZ         0.00000   0.00141  -0.00050   0.00000  -0.08301
                          16        17        18        19        20
                           V         V         V         V         V
     Eigenvalues --     0.43855   0.47848   0.47879   0.66297   0.77733
   1 1   Cl 1S         -0.00000  -0.00000   0.00000  -0.06974  -0.06491
   2        2S         -0.00000  -0.00000  -0.00000  -0.03502  -0.02867
   3        3S          0.00000   0.00000  -0.00000   0.46246   0.43946
   4        4S         -0.00000  -0.00000  -0.00000  -1.59314  -1.90592
   5        5S          0.00000   0.00000   0.00000   1.62993   2.80164
   6        6PX        -0.00000   0.00000   0.00000  -0.06270  -0.00184
   7        6PY         0.00049  -0.00000  -0.00000  -0.00000  -0.00000
   8        6PZ        -0.00021   0.00000   0.00000  -0.00000  -0.00000
   9        7PX        -0.00000   0.00000   0.00000  -0.03060  -0.02019
  10        7PY        -0.00414  -0.00000   0.00000   0.00000  -0.00000
  11        7PZ         0.00178   0.00000  -0.00000   0.00000   0.00000
  12        8PX         0.00000  -0.00000  -0.00000   0.09649   0.10899
  13        8PY         0.01655   0.00000  -0.00000   0.00000   0.00000
  14        8PZ        -0.00713  -0.00000   0.00000  -0.00000  -0.00000
  15        9PX         0.00000  -0.00000  -0.00000   0.32599  -0.26419
  16        9PY        -0.05274   0.00000   0.00000  -0.00000  -0.00000
  17        9PZ         0.02272  -0.00000  -0.00000   0.00000   0.00000
  18       10PX        -0.00000  -0.00000  -0.00000  -0.29780  -1.25513
  19       10PY         0.10470  -0.00000  -0.00000   0.00000  -0.00000
  20       10PZ        -0.04511   0.00000   0.00000  -0.00000  -0.00000
  21       11D 0       -0.00000   0.21248   0.00000   0.08835  -0.09459
  22       11D+1       -0.09349  -0.00000  -0.00000   0.00000   0.00000
  23       11D-1       -0.00000  -0.00000   0.24513  -0.00000   0.00000
  24       11D+2       -0.00000   0.12268   0.00000  -0.15303   0.16383
  25       11D-2        0.21697   0.00000   0.00000  -0.00000  -0.00000
  26       12D 0       -0.00000   0.72679   0.00000   0.30194  -0.52298
  27       12D+1       -0.31881  -0.00000  -0.00000  -0.00000   0.00000
  28       12D-1       -0.00000  -0.00000   0.83940   0.00000  -0.00000
  29       12D+2        0.00000   0.41961   0.00000  -0.52298   0.90584
  30       12D-2        0.73989   0.00000   0.00000   0.00000  -0.00000
  31       13F 0       -0.00417   0.00000   0.00000  -0.00000  -0.00000
  32       13F+1        0.00000  -0.00743  -0.00000   0.00945   0.04322
  33       13F-1        0.00409  -0.00000   0.00000  -0.00000   0.00000
  34       13F+2        0.00546   0.00000   0.00000  -0.00000   0.00000
  35       13F-2        0.00000   0.00000  -0.00911  -0.00000   0.00000
  36       13F+3       -0.00000  -0.00576  -0.00000  -0.01220  -0.05579
  37       13F-3       -0.01542  -0.00000  -0.00000  -0.00000  -0.00000
  38 2   H  1S          0.00000   0.00000  -0.00000   0.06001   0.05103
  39        2S         -0.00000  -0.00000  -0.00000   1.03418  -1.84013
  40        3S         -0.00000   0.00000   0.00000  -1.20894  -0.48946
  41        4PX        -0.00000   0.00000  -0.00000  -0.09217  -0.19727
  42        4PY        -0.08301  -0.00000  -0.00000   0.00000  -0.00000
  43        4PZ         0.03577   0.00000   0.00000  -0.00000  -0.00000
                          21        22        23        24        25
                           V         V         V         V         V
     Eigenvalues --     1.51329   1.51329   1.72496   1.79215   1.79215
   1 1   Cl 1S         -0.00000  -0.00000   0.00266   0.00000  -0.00000
   2        2S         -0.00000  -0.00000   0.00469   0.00000  -0.00000
   3        3S          0.00000   0.00000  -0.01421   0.00000   0.00000
   4        4S         -0.00000  -0.00000  -0.21874  -0.00000  -0.00000
   5        5S          0.00000  -0.00000   0.78846   0.00000  -0.00000
   6        6PX        -0.00000  -0.00000   0.05138  -0.00000   0.00000
   7        6PY         0.02768   0.02330  -0.00000   0.00104  -0.00238
   8        6PZ        -0.02330   0.02768  -0.00000  -0.00238  -0.00104
   9        7PX         0.00000   0.00000   0.01051  -0.00000   0.00000
  10        7PY         0.02372   0.01997  -0.00000  -0.00137   0.00313
  11        7PZ        -0.01997   0.02372  -0.00000   0.00313   0.00137
  12        8PX        -0.00000  -0.00000  -0.02925   0.00000  -0.00000
  13        8PY        -0.10485  -0.08829   0.00000   0.00702  -0.01605
  14        8PZ         0.08829  -0.10485   0.00000  -0.01605  -0.00702
  15        9PX         0.00000   0.00000  -0.34733  -0.00000   0.00000
  16        9PY         0.04288   0.03610  -0.00000  -0.01872   0.04278
  17        9PZ        -0.03610   0.04288  -0.00000   0.04278   0.01872
  18       10PX        -0.00000   0.00000  -0.31895   0.00000  -0.00000
  19       10PY        -0.14175  -0.11936   0.00000  -0.00735   0.01680
  20       10PZ         0.11936  -0.14175   0.00000   0.01680   0.00735
  21       11D 0        0.00000  -0.00000   0.38025  -0.00000  -0.00000
  22       11D+1       -0.20862   0.24775  -0.00000   1.04278   0.45636
  23       11D-1       -0.00000  -0.00000  -0.00000  -0.00000  -0.00000
  24       11D+2        0.00000   0.00000  -0.65861  -0.00000  -0.00000
  25       11D-2        0.24775   0.20862  -0.00000  -0.45636   1.04278
  26       12D 0       -0.00000   0.00000  -0.53519   0.00000   0.00000
  27       12D+1       -0.11428   0.13572   0.00000  -0.86452  -0.37835
  28       12D-1        0.00000   0.00000   0.00000   0.00000   0.00000
  29       12D+2       -0.00000  -0.00000   0.92698   0.00000   0.00000
  30       12D-2        0.13572   0.11428   0.00000   0.37835  -0.86452
  31       13F 0        0.11801  -0.14014  -0.00000   0.12743   0.05577
  32       13F+1       -0.00000  -0.00000  -0.21881  -0.00000   0.00000
  33       13F-1       -0.05709  -0.04807  -0.00000  -0.02311   0.05280
  34       13F+2       -0.15222   0.18077  -0.00000  -0.16549  -0.07243
  35       13F-2       -0.00000  -0.00000   0.00000  -0.00000  -0.00000
  36       13F+3       -0.00000   0.00000   0.28248  -0.00000   0.00000
  37       13F-3        0.22149   0.18651   0.00000   0.08844  -0.20208
  38 2   H  1S         -0.00000  -0.00000  -0.53029  -0.00000  -0.00000
  39        2S          0.00000   0.00000  -0.14881   0.00000   0.00000
  40        3S         -0.00000  -0.00000  -0.44282  -0.00000  -0.00000
  41        4PX         0.00000   0.00000  -0.50826  -0.00000   0.00000
  42        4PY         0.66909   0.56341   0.00000   0.09322  -0.21301
  43        4PZ        -0.56341   0.66909   0.00000  -0.21301  -0.09322
                          26        27        28        29        30
                           V         V         V         V         V
     Eigenvalues --     1.79459   1.79477   1.94082   2.11404   2.11468
   1 1   Cl 1S          0.00000   0.00000  -0.00575  -0.00000  -0.00000
   2        2S         -0.00000   0.00000   0.00021  -0.00000  -0.00000
   3        3S         -0.00000  -0.00000   0.04153   0.00000   0.00000
   4        4S          0.00000  -0.00000   0.08331  -0.00000  -0.00000
   5        5S          0.00000   0.00000  -0.79701   0.00000   0.00000
   6        6PX         0.00000   0.00000   0.04038  -0.00000   0.00000
   7        6PY         0.00000   0.00000   0.00000  -0.00000  -0.00000
   8        6PZ         0.00000   0.00000   0.00000  -0.00000  -0.00000
   9        7PX         0.00000   0.00000   0.07123  -0.00000   0.00000
  10        7PY         0.00000   0.00000   0.00000  -0.00000  -0.00000
  11        7PZ         0.00000   0.00000   0.00000  -0.00000  -0.00000
  12        8PX        -0.00000  -0.00000  -0.39881   0.00000  -0.00000
  13        8PY        -0.00000  -0.00000  -0.00000   0.00000   0.00000
  14        8PZ        -0.00000  -0.00000  -0.00000   0.00000   0.00000
  15        9PX         0.00000   0.00000   0.87195  -0.00000   0.00000
  16        9PY         0.00000   0.00000   0.00000  -0.00000  -0.00000
  17        9PZ         0.00000   0.00000   0.00000  -0.00000  -0.00000
  18       10PX        -0.00000  -0.00000   0.45784  -0.00000  -0.00000
  19       10PY         0.00000  -0.00000  -0.00000   0.00000   0.00000
  20       10PZ         0.00000  -0.00000  -0.00000   0.00000   0.00000
  21       11D 0        0.00000   1.03385  -0.41790  -0.00605   0.00000
  22       11D+1        0.00000   0.00000  -0.00000   0.00000   0.00000
  23       11D-1        1.19382  -0.00000  -0.00000  -0.00000  -0.00909
  24       11D+2        0.00000   0.59689   0.72383  -0.00349   0.00000
  25       11D-2        0.00000  -0.00000  -0.00000   0.00000   0.00000
  26       12D 0       -0.00000  -0.76527   0.62038   0.01279  -0.00000
  27       12D+1       -0.00000  -0.00000   0.00000  -0.00000  -0.00000
  28       12D-1       -0.88347   0.00000   0.00000   0.00000   0.01603
  29       12D+2       -0.00000  -0.44183  -1.07453   0.00738  -0.00000
  30       12D-2       -0.00000   0.00000   0.00000  -0.00000  -0.00000
  31       13F 0        0.00000   0.00000   0.00000  -0.00000  -0.00000
  32       13F+1        0.00000   0.00615  -0.29414   0.79051  -0.00000
  33       13F-1        0.00000  -0.00000  -0.00000   0.00000   0.00000
  34       13F+2       -0.00000  -0.00000   0.00000  -0.00000  -0.00000
  35       13F-2        0.00948  -0.00000   0.00000   0.00000   0.99991
  36       13F+3        0.00000   0.00476   0.37973   0.61233  -0.00000
  37       13F-3       -0.00000  -0.00000  -0.00000   0.00000   0.00000
  38 2   H  1S         -0.00000  -0.00000  -0.88681  -0.00000   0.00000
  39        2S          0.00000   0.00000   2.60379   0.00000  -0.00000
  40        3S         -0.00000  -0.00000  -0.58664  -0.00000  -0.00000
  41        4PX        -0.00000  -0.00000   0.32902   0.00000  -0.00000
  42        4PY        -0.00000  -0.00000  -0.00000  -0.00000  -0.00000
  43        4PZ        -0.00000  -0.00000   0.00000  -0.00000  -0.00000
                          31        32        33        34        35
                           V         V         V         V         V
     Eigenvalues --     2.14166   2.14166   2.20108   2.21126   2.21126
   1 1   Cl 1S          0.00000  -0.00000  -0.00959  -0.00000   0.00000
   2        2S          0.00000  -0.00000  -0.00811  -0.00000   0.00000
   3        3S         -0.00000   0.00000   0.07047   0.00000  -0.00000
   4        4S         -0.00000  -0.00000  -0.30000  -0.00000   0.00000
   5        5S          0.00000   0.00000   0.38325   0.00000  -0.00000
   6        6PX         0.00000   0.00000   0.28792   0.00000  -0.00000
   7        6PY        -0.00000   0.00000  -0.00000   0.13154  -0.27690
   8        6PZ         0.00000   0.00000   0.00000  -0.27690  -0.13154
   9        7PX         0.00000   0.00000   0.39081   0.00000  -0.00000
  10        7PY         0.00001  -0.00001  -0.00000   0.17327  -0.36475
  11        7PZ        -0.00001  -0.00001   0.00000  -0.36475  -0.17327
  12        8PX         0.00000  -0.00000  -1.97323  -0.00000   0.00000
  13        8PY        -0.00007   0.00005   0.00000  -0.87237   1.83639
  14        8PZ         0.00005   0.00007  -0.00000   1.83639   0.87237
  15        9PX        -0.00000   0.00000   2.11705   0.00000  -0.00000
  16        9PY         0.00016  -0.00011  -0.00000   0.86421  -1.81921
  17        9PZ        -0.00011  -0.00016   0.00000  -1.81921  -0.86421
  18       10PX        -0.00000  -0.00000  -0.91626  -0.00000   0.00000
  19       10PY        -0.00012   0.00008   0.00000  -0.31809   0.66959
  20       10PZ         0.00008   0.00012  -0.00000   0.66959   0.31809
  21       11D 0        0.00000  -0.00000   0.06310   0.00000   0.00000
  22       11D+1        0.00050   0.00073  -0.00000   0.05728   0.02721
  23       11D-1       -0.00000  -0.00000   0.00000   0.00000   0.00000
  24       11D+2        0.00000  -0.00000  -0.10929  -0.00000   0.00000
  25       11D-2       -0.00073   0.00050   0.00000  -0.02721   0.05728
  26       12D 0       -0.00000   0.00000  -0.02732  -0.00000  -0.00000
  27       12D+1       -0.00037  -0.00054   0.00000  -0.05040  -0.02394
  28       12D-1        0.00000   0.00000  -0.00000  -0.00000  -0.00000
  29       12D+2        0.00000   0.00000   0.04733   0.00000  -0.00000
  30       12D-2        0.00054  -0.00037  -0.00000   0.02394  -0.05040
  31       13F 0        0.44610   0.65253   0.00000  -0.10742  -0.05103
  32       13F+1       -0.00000   0.00000   0.20067   0.00000  -0.00000
  33       13F-1        0.79936  -0.54647   0.00000   0.02076  -0.04371
  34       13F+2        0.34569   0.50566  -0.00000   0.13849   0.06579
  35       13F-2       -0.00000   0.00000  -0.00000  -0.00000  -0.00000
  36       13F+3       -0.00000   0.00000  -0.25906  -0.00000  -0.00000
  37       13F-3        0.20622  -0.14098   0.00000  -0.08063   0.16973
  38 2   H  1S          0.00000  -0.00000  -0.15847  -0.00000   0.00000
  39        2S         -0.00000   0.00000   0.40384   0.00000  -0.00000
  40        3S         -0.00000  -0.00000  -0.49254  -0.00000   0.00000
  41        4PX        -0.00000   0.00000   0.07156   0.00000  -0.00000
  42        4PY         0.00025  -0.00017   0.00000   0.00736  -0.01549
  43        4PZ        -0.00017  -0.00025   0.00000  -0.01549  -0.00736
                          36        37        38        39        40
                           V         V         V         V         V
     Eigenvalues --     2.49968   2.49968   2.52440   3.29413  10.74876
   1 1   Cl 1S         -0.00000  -0.00000  -0.02478  -0.01611   0.00000
   2        2S         -0.00000  -0.00000  -0.02129  -0.03568   0.00000
   3        3S          0.00000   0.00000   0.18331   0.11826  -0.00000
   4        4S         -0.00000  -0.00000  -0.29040   0.24248  -0.00000
   5        5S         -0.00000  -0.00000  -0.88329  -1.88698   0.00000
   6        6PX        -0.00000  -0.00000  -0.08956   0.06557   0.00000
   7        6PY         0.03564   0.04147  -0.00000  -0.00000  -1.17298
   8        6PZ        -0.04147   0.03564  -0.00000  -0.00000   0.03175
   9        7PX        -0.00000  -0.00000  -0.04301   0.18844  -0.00000
  10        7PY         0.05248   0.06108  -0.00000   0.00000   2.20522
  11        7PZ        -0.06108   0.05248  -0.00000  -0.00000  -0.05969
  12        8PX         0.00000   0.00000   0.13711  -1.17888   0.00000
  13        8PY        -0.27809  -0.32364   0.00000   0.00000  -1.87479
  14        8PZ         0.32364  -0.27809   0.00000   0.00000   0.05074
  15        9PX         0.00000   0.00000   0.99038   2.58814  -0.00000
  16        9PY         0.31327   0.36458  -0.00000  -0.00000   0.97531
  17        9PZ        -0.36458   0.31327  -0.00000  -0.00000  -0.02640
  18       10PX         0.00000   0.00000   0.34182   0.33360   0.00000
  19       10PY        -0.02144  -0.02495   0.00000   0.00000  -0.28968
  20       10PZ         0.02495  -0.02144   0.00000   0.00000   0.00784
  21       11D 0        0.00000   0.00000   0.24362   0.02595  -0.00000
  22       11D+1       -0.16287   0.13995  -0.00000  -0.00000  -0.00009
  23       11D-1       -0.00000   0.00000   0.00000  -0.00000  -0.00000
  24       11D+2       -0.00000  -0.00000  -0.42196  -0.04494  -0.00000
  25       11D-2        0.13995   0.16287  -0.00000  -0.00000   0.00317
  26       12D 0        0.00000   0.00000   0.23002   0.77616  -0.00000
  27       12D+1        0.35801  -0.30762   0.00000   0.00000   0.00035
  28       12D-1        0.00000  -0.00000   0.00000   0.00000   0.00000
  29       12D+2       -0.00000  -0.00000  -0.39840  -1.34435   0.00000
  30       12D-2       -0.30762  -0.35801   0.00000   0.00000  -0.01291
  31       13F 0        0.45984  -0.39512   0.00000   0.00000   0.00017
  32       13F+1       -0.00000  -0.00000  -0.00846  -0.77153   0.00000
  33       13F-1       -0.16106  -0.18744   0.00000  -0.00000  -0.00258
  34       13F+2       -0.59328   0.50978  -0.00000  -0.00000  -0.00022
  35       13F-2       -0.00000  -0.00000   0.00000  -0.00000   0.00000
  36       13F+3       -0.00000   0.00000   0.01093   0.99604  -0.00000
  37       13F-3        0.62455   0.72685  -0.00000   0.00000   0.00998
  38 2   H  1S         -0.00000  -0.00000  -0.89923   0.86282  -0.00000
  39        2S          0.00000   0.00000   2.45074   2.12539  -0.00000
  40        3S         -0.00000  -0.00000  -0.33348   0.09792   0.00000
  41        4PX         0.00000   0.00000   1.39880   1.69283  -0.00000
  42        4PY        -0.52507  -0.61108   0.00000  -0.00000  -0.02907
  43        4PZ         0.61108  -0.52507   0.00000   0.00000   0.00079
                          41        42        43
                           V         V         V
     Eigenvalues --    10.74876  10.82451  24.59813
   1 1   Cl 1S         -0.00000   0.00344  -0.65781
   2        2S          0.00000  -0.02517   2.52434
   3        3S          0.00000  -0.01139   3.15216
   4        4S          0.00000  -0.00580  -1.57220
   5        5S         -0.00000  -0.06282   0.67018
   6        6PX         0.00000  -1.17612  -0.02177
   7        6PY        -0.03175  -0.00000   0.00000
   8        6PZ        -1.17298  -0.00000   0.00000
   9        7PX        -0.00000   2.23264   0.07321
  10        7PY         0.05969   0.00000   0.00000
  11        7PZ         2.20522   0.00000  -0.00000
  12        8PX         0.00000  -1.97923  -0.20787
  13        8PY        -0.05074  -0.00000  -0.00000
  14        8PZ        -1.87479  -0.00000   0.00000
  15        9PX        -0.00000   1.19640   0.49618
  16        9PY         0.02640   0.00000   0.00000
  17        9PZ         0.97531   0.00000  -0.00000
  18       10PX         0.00000  -0.30646  -0.17126
  19       10PY        -0.00784  -0.00000  -0.00000
  20       10PZ        -0.28968  -0.00000   0.00000
  21       11D 0        0.00000  -0.00761   0.01783
  22       11D+1        0.00317   0.00000  -0.00000
  23       11D-1        0.00000   0.00000   0.00000
  24       11D+2        0.00000   0.01318  -0.03089
  25       11D-2        0.00009  -0.00000   0.00000
  26       12D 0       -0.00000   0.07513   0.09212
  27       12D+1       -0.01291   0.00000   0.00000
  28       12D-1       -0.00000  -0.00000  -0.00000
  29       12D+2        0.00000  -0.13013  -0.15955
  30       12D-2       -0.00035  -0.00000   0.00000
  31       13F 0       -0.00631  -0.00000   0.00000
  32       13F+1       -0.00000  -0.04885  -0.07072
  33       13F-1       -0.00007  -0.00000  -0.00000
  34       13F+2        0.00815   0.00000  -0.00000
  35       13F-2       -0.00000  -0.00000  -0.00000
  36       13F+3       -0.00000   0.06307   0.09130
  37       13F-3        0.00027   0.00000   0.00000
  38 2   H  1S         -0.00000   0.07545  -0.00052
  39        2S         -0.00000   0.26490   0.46469
  40        3S          0.00000  -0.14849  -0.34446
  41        4PX        -0.00000   0.09350   0.30584
  42        4PY        -0.00079  -0.00000  -0.00000
  43        4PZ        -0.02907  -0.00000   0.00000
     Density Matrix:
                           1         2         3         4         5
   1 1   Cl 1S          2.19196
   2        2S          0.07020   0.10381
   3        3S         -0.60834  -0.43091   1.91761
   4        4S          0.11472   0.09150  -0.65291   0.93885
   5        5S          0.09101   0.07894  -0.52284   0.68399   0.51939
   6        6PX        -0.00459  -0.00434   0.02654  -0.03649  -0.05849
   7        6PY        -0.00000   0.00000   0.00000  -0.00000   0.00000
   8        6PZ        -0.00000  -0.00000  -0.00000   0.00000  -0.00000
   9        7PX        -0.00171  -0.00169   0.01091  -0.01665  -0.02777
  10        7PY        -0.00000   0.00000   0.00000  -0.00000   0.00000
  11        7PZ         0.00000   0.00000  -0.00000   0.00000  -0.00000
  12        8PX         0.00581   0.00464  -0.03214   0.04621   0.07501
  13        8PY         0.00000   0.00000   0.00000  -0.00000  -0.00000
  14        8PZ        -0.00000  -0.00000   0.00000   0.00000  -0.00000
  15        9PX         0.01185   0.01217  -0.07673   0.09819   0.15387
  16        9PY        -0.00000  -0.00000   0.00000  -0.00000  -0.00000
  17        9PZ         0.00000   0.00000  -0.00000   0.00000  -0.00000
  18       10PX         0.00716   0.00578  -0.04091   0.06022   0.08047
  19       10PY         0.00000   0.00000  -0.00000   0.00000  -0.00000
  20       10PZ        -0.00000  -0.00000   0.00000  -0.00000  -0.00000
  21       11D 0       -0.00020  -0.00010   0.00146  -0.00310   0.00259
  22       11D+1        0.00000   0.00000  -0.00000   0.00000   0.00000
  23       11D-1       -0.00000  -0.00000   0.00000  -0.00000  -0.00000
  24       11D+2        0.00035   0.00018  -0.00253   0.00537  -0.00449
  25       11D-2        0.00000   0.00000  -0.00000   0.00000   0.00000
  26       12D 0       -0.00058  -0.00015   0.00154  -0.00262   0.00218
  27       12D+1       -0.00000  -0.00000   0.00000  -0.00000   0.00000
  28       12D-1       -0.00000  -0.00000   0.00000  -0.00000  -0.00000
  29       12D+2        0.00101   0.00026  -0.00267   0.00454  -0.00378
  30       12D-2       -0.00000  -0.00000   0.00000  -0.00000  -0.00000
  31       13F 0       -0.00000  -0.00000   0.00000  -0.00000  -0.00000
  32       13F+1        0.00036   0.00007  -0.00116   0.00262  -0.00003
  33       13F-1       -0.00000  -0.00000   0.00000  -0.00000  -0.00000
  34       13F+2        0.00000   0.00000  -0.00000   0.00000   0.00000
  35       13F-2       -0.00000  -0.00000   0.00000  -0.00000   0.00000
  36       13F+3       -0.00046  -0.00009   0.00150  -0.00339   0.00004
  37       13F-3        0.00000   0.00000  -0.00000   0.00000   0.00000
  38 2   H  1S          0.00708   0.00565  -0.03887   0.05145   0.00259
  39        2S          0.00241   0.00304  -0.01756   0.01566  -0.04235
  40        3S         -0.00242  -0.00327   0.01770  -0.01676  -0.02403
  41        4PX         0.00178   0.00241  -0.01371   0.01378   0.00602
  42        4PY        -0.00000  -0.00000   0.00000  -0.00000  -0.00000
  43        4PZ        -0.00000  -0.00000   0.00000  -0.00000  -0.00000
                           6         7         8         9        10
   6        6PX         1.06940
   7        6PY         0.00000   1.09927
   8        6PZ         0.00000   0.00000   1.09927
   9        7PX         0.51542   0.00000  -0.00000   0.24843
  10        7PY        -0.00000   0.52862   0.00000  -0.00000   0.25420
  11        7PZ        -0.00000   0.00000   0.52862  -0.00000  -0.00000
  12        8PX         0.03363  -0.00000   0.00000   0.01556  -0.00000
  13        8PY         0.00000  -0.00642  -0.00000   0.00000  -0.00322
  14        8PZ         0.00000   0.00000  -0.00642   0.00000   0.00000
  15        9PX        -0.16379   0.00000  -0.00000  -0.08010   0.00000
  16        9PY        -0.00000  -0.23949   0.00000   0.00000  -0.11542
  17        9PZ        -0.00000  -0.00000  -0.23949  -0.00000  -0.00000
  18       10PX        -0.05960  -0.00000   0.00000  -0.02924  -0.00000
  19       10PY         0.00000  -0.14703  -0.00000   0.00000  -0.07088
  20       10PZ         0.00000   0.00000  -0.14703   0.00000   0.00000
  21       11D 0       -0.00755  -0.00000  -0.00000  -0.00371  -0.00000
  22       11D+1        0.00000   0.00000   0.00100   0.00000   0.00000
  23       11D-1        0.00000   0.00000   0.00000   0.00000   0.00000
  24       11D+2        0.01307  -0.00000  -0.00000   0.00643  -0.00000
  25       11D-2       -0.00000   0.00100   0.00000  -0.00000   0.00048
  26       12D 0       -0.00793   0.00000  -0.00000  -0.00389   0.00000
  27       12D+1       -0.00000   0.00000   0.00925  -0.00000   0.00000
  28       12D-1        0.00000  -0.00000   0.00000   0.00000  -0.00000
  29       12D+2        0.01373  -0.00000   0.00000   0.00673  -0.00000
  30       12D-2        0.00000   0.00925   0.00000   0.00000   0.00446
  31       13F 0       -0.00000   0.00000   0.00198  -0.00000   0.00000
  32       13F+1        0.00340   0.00000   0.00000   0.00167   0.00000
  33       13F-1       -0.00000   0.00084  -0.00000  -0.00000   0.00041
  34       13F+2        0.00000  -0.00000  -0.00260   0.00000  -0.00000
  35       13F-2       -0.00000   0.00000  -0.00000  -0.00000   0.00000
  36       13F+3       -0.00439   0.00000   0.00000  -0.00216   0.00000
  37       13F-3        0.00000  -0.00315  -0.00000   0.00000  -0.00152
  38 2   H  1S          0.05691  -0.00000   0.00000   0.02803  -0.00000
  39        2S          0.08814   0.00000  -0.00000   0.04334   0.00000
  40        3S          0.02302  -0.00000   0.00000   0.01125  -0.00000
  41        4PX         0.00548   0.00000   0.00000   0.00272   0.00000
  42        4PY        -0.00000  -0.00722  -0.00000  -0.00000  -0.00348
  43        4PZ        -0.00000  -0.00000  -0.00722  -0.00000  -0.00000
                          11        12        13        14        15
  11        7PZ         0.25420
  12        8PX         0.00000   0.10033
  13        8PY        -0.00000  -0.00000   0.14859
  14        8PZ        -0.00322   0.00000   0.00000   0.14859
  15        9PX        -0.00000   0.17610   0.00000  -0.00000   0.35610
  16        9PY         0.00000  -0.00000   0.28253   0.00000   0.00000
  17        9PZ        -0.11542  -0.00000   0.00000   0.28253  -0.00000
  18       10PX         0.00000   0.08087  -0.00000   0.00000   0.16031
  19       10PY        -0.00000  -0.00000   0.19351  -0.00000   0.00000
  20       10PZ        -0.07088   0.00000   0.00000   0.19351  -0.00000
  21       11D 0       -0.00000   0.01010   0.00000   0.00000   0.01998
  22       11D+1        0.00048   0.00000  -0.00000  -0.00306   0.00000
  23       11D-1        0.00000  -0.00000   0.00000  -0.00000  -0.00000
  24       11D+2       -0.00000  -0.01750   0.00000   0.00000  -0.03461
  25       11D-2        0.00000  -0.00000  -0.00306  -0.00000  -0.00000
  26       12D 0       -0.00000   0.00838  -0.00000   0.00000   0.01693
  27       12D+1        0.00446   0.00000   0.00000  -0.01062   0.00000
  28       12D-1        0.00000  -0.00000   0.00000  -0.00000  -0.00000
  29       12D+2        0.00000  -0.01452  -0.00000   0.00000  -0.02933
  30       12D-2        0.00000  -0.00000  -0.01062   0.00000  -0.00000
  31       13F 0        0.00095  -0.00000  -0.00000  -0.00256  -0.00000
  32       13F+1        0.00000  -0.00391   0.00000   0.00000  -0.00783
  33       13F-1       -0.00000  -0.00000  -0.00110   0.00000  -0.00000
  34       13F+2       -0.00125   0.00000   0.00000   0.00337   0.00000
  35       13F-2       -0.00000   0.00000   0.00000   0.00000   0.00000
  36       13F+3        0.00000   0.00505   0.00000   0.00000   0.01011
  37       13F-3       -0.00000   0.00000   0.00409  -0.00000   0.00000
  38 2   H  1S          0.00000  -0.07146  -0.00000   0.00000  -0.14184
  39        2S         -0.00000  -0.11357   0.00000  -0.00000  -0.22537
  40        3S          0.00000  -0.02509  -0.00000   0.00000  -0.05073
  41        4PX         0.00000  -0.00823   0.00000  -0.00000  -0.01603
  42        4PY        -0.00000  -0.00000   0.00980  -0.00000   0.00000
  43        4PZ        -0.00348  -0.00000   0.00000   0.00980  -0.00000
                          16        17        18        19        20
  16        9PY         0.58420
  17        9PZ         0.00000   0.58420
  18       10PX        -0.00000   0.00000   0.07267
  19       10PY         0.39661  -0.00000  -0.00000   0.26950
  20       10PZ        -0.00000   0.39661   0.00000  -0.00000   0.26950
  21       11D 0        0.00000   0.00000   0.00887   0.00000   0.00000
  22       11D+1       -0.00000  -0.00600   0.00000  -0.00000  -0.00409
  23       11D-1        0.00000  -0.00000  -0.00000   0.00000  -0.00000
  24       11D+2        0.00000   0.00000  -0.01536   0.00000   0.00000
  25       11D-2       -0.00600  -0.00000  -0.00000  -0.00409  -0.00000
  26       12D 0       -0.00000   0.00000   0.00749  -0.00000   0.00000
  27       12D+1        0.00000  -0.02202   0.00000   0.00000  -0.01495
  28       12D-1        0.00000  -0.00000  -0.00000   0.00000  -0.00000
  29       12D+2       -0.00000   0.00000  -0.01298  -0.00000  -0.00000
  30       12D-2       -0.02202   0.00000  -0.00000  -0.01495   0.00000
  31       13F 0       -0.00000  -0.00525  -0.00000  -0.00000  -0.00357
  32       13F+1       -0.00000   0.00000  -0.00344  -0.00000   0.00000
  33       13F-1       -0.00225   0.00000  -0.00000  -0.00153   0.00000
  34       13F+2        0.00000   0.00692   0.00000   0.00000   0.00470
  35       13F-2        0.00000   0.00000   0.00000   0.00000   0.00000
  36       13F+3        0.00000   0.00000   0.00444   0.00000   0.00000
  37       13F-3        0.00839   0.00000   0.00000   0.00570  -0.00000
  38 2   H  1S          0.00000   0.00000  -0.06242   0.00000  -0.00000
  39        2S          0.00000   0.00000  -0.10036   0.00000  -0.00000
  40        3S          0.00000   0.00000  -0.02287   0.00000   0.00000
  41        4PX         0.00000  -0.00000  -0.00694   0.00000  -0.00000
  42        4PY         0.02004  -0.00000  -0.00000   0.01362  -0.00000
  43        4PZ         0.00000   0.02004  -0.00000   0.00000   0.01362
                          21        22        23        24        25
  21       11D 0        0.00121
  22       11D+1        0.00000   0.00006
  23       11D-1        0.00000   0.00000   0.00000
  24       11D+2       -0.00209  -0.00000  -0.00000   0.00362
  25       11D-2       -0.00000   0.00000  -0.00000  -0.00000   0.00006
  26       12D 0        0.00102  -0.00000   0.00000  -0.00176  -0.00000
  27       12D+1       -0.00000   0.00023   0.00000  -0.00000   0.00000
  28       12D-1       -0.00000   0.00000   0.00000   0.00000  -0.00000
  29       12D+2       -0.00176  -0.00000  -0.00000   0.00306   0.00000
  30       12D-2       -0.00000   0.00000  -0.00000   0.00000   0.00023
  31       13F 0       -0.00000   0.00005   0.00000  -0.00000   0.00000
  32       13F+1       -0.00049  -0.00000  -0.00000   0.00084   0.00000
  33       13F-1       -0.00000   0.00000  -0.00000  -0.00000   0.00002
  34       13F+2        0.00000  -0.00007  -0.00000  -0.00000  -0.00000
  35       13F-2        0.00000  -0.00000   0.00000  -0.00000  -0.00000
  36       13F+3        0.00063   0.00000   0.00000  -0.00108  -0.00000
  37       13F-3        0.00000  -0.00000   0.00000  -0.00000  -0.00009
  38 2   H  1S         -0.00883  -0.00000  -0.00000   0.01529   0.00000
  39        2S         -0.01341  -0.00000  -0.00000   0.02323   0.00000
  40        3S         -0.00282  -0.00000   0.00000   0.00489   0.00000
  41        4PX        -0.00107  -0.00000  -0.00000   0.00186  -0.00000
  42        4PY         0.00000  -0.00000   0.00000   0.00000  -0.00021
  43        4PZ        -0.00000  -0.00021  -0.00000   0.00000  -0.00000
                          26        27        28        29        30
  26       12D 0        0.00086
  27       12D+1       -0.00000   0.00083
  28       12D-1       -0.00000   0.00000   0.00000
  29       12D+2       -0.00150  -0.00000   0.00000   0.00259
  30       12D-2       -0.00000  -0.00000  -0.00000   0.00000   0.00083
  31       13F 0       -0.00000   0.00020   0.00000   0.00000   0.00000
  32       13F+1       -0.00041  -0.00000   0.00000   0.00071   0.00000
  33       13F-1        0.00000  -0.00000  -0.00000   0.00000   0.00008
  34       13F+2        0.00000  -0.00026  -0.00000  -0.00000  -0.00000
  35       13F-2        0.00000  -0.00000  -0.00000  -0.00000  -0.00000
  36       13F+3        0.00053  -0.00000  -0.00000  -0.00092  -0.00000
  37       13F-3        0.00000   0.00000   0.00000  -0.00000  -0.00032
  38 2   H  1S         -0.00747  -0.00000   0.00000   0.01293   0.00000
  39        2S         -0.01134  -0.00000   0.00000   0.01964   0.00000
  40        3S         -0.00239  -0.00000   0.00000   0.00414   0.00000
  41        4PX        -0.00091  -0.00000   0.00000   0.00157  -0.00000
  42        4PY        -0.00000   0.00000   0.00000  -0.00000  -0.00076
  43        4PZ         0.00000  -0.00076  -0.00000   0.00000   0.00000
                          31        32        33        34        35
  31       13F 0        0.00005
  32       13F+1       -0.00000   0.00020
  33       13F-1        0.00000   0.00000   0.00001
  34       13F+2       -0.00006  -0.00000  -0.00000   0.00008
  35       13F-2       -0.00000  -0.00000  -0.00000   0.00000   0.00000
  36       13F+3       -0.00000  -0.00025  -0.00000   0.00000   0.00000
  37       13F-3       -0.00000  -0.00000  -0.00003   0.00000   0.00000
  38 2   H  1S          0.00000   0.00359  -0.00000  -0.00000  -0.00000
  39        2S          0.00000   0.00536  -0.00000  -0.00000  -0.00000
  40        3S         -0.00000   0.00110   0.00000  -0.00000  -0.00000
  41        4PX         0.00000   0.00045  -0.00000  -0.00000  -0.00000
  42        4PY        -0.00000  -0.00000  -0.00008   0.00000   0.00000
  43        4PZ        -0.00018   0.00000   0.00000   0.00024   0.00000
                          36        37        38        39        40
  36       13F+3        0.00033
  37       13F-3        0.00000   0.00012
  38 2   H  1S         -0.00464  -0.00000   0.06561
  39        2S         -0.00692  -0.00000   0.09770   0.14965
  40        3S         -0.00142  -0.00000   0.01991   0.03183   0.00725
  41        4PX        -0.00058   0.00000   0.00824   0.01177   0.00221
  42        4PY         0.00000   0.00029   0.00000   0.00000   0.00000
  43        4PZ         0.00000   0.00000   0.00000   0.00000   0.00000
                          41        42        43
  41        4PX         0.00110
  42        4PY         0.00000   0.00069
  43        4PZ         0.00000  -0.00000   0.00069
    Full Mulliken population analysis:
                           1         2         3         4         5
   1 1   Cl 1S          2.19196
   2        2S         -0.00527   0.10381
   3        3S         -0.18577   0.36870   1.91761
   4        4S          0.00956  -0.03231  -0.39343   0.93885
   5        5S          0.00355  -0.01380  -0.17144   0.56558   0.51939
   6        6PX         0.00000   0.00000   0.00000   0.00000   0.00000
   7        6PY         0.00000   0.00000   0.00000   0.00000   0.00000
   8        6PZ         0.00000   0.00000   0.00000   0.00000   0.00000
   9        7PX         0.00000   0.00000   0.00000   0.00000   0.00000
  10        7PY         0.00000   0.00000   0.00000   0.00000   0.00000
  11        7PZ         0.00000   0.00000   0.00000   0.00000   0.00000
  12        8PX         0.00000   0.00000   0.00000   0.00000   0.00000
  13        8PY         0.00000   0.00000   0.00000   0.00000   0.00000
  14        8PZ         0.00000   0.00000   0.00000   0.00000   0.00000
  15        9PX         0.00000   0.00000   0.00000   0.00000   0.00000
  16        9PY         0.00000   0.00000   0.00000   0.00000   0.00000
  17        9PZ         0.00000   0.00000   0.00000   0.00000   0.00000
  18       10PX         0.00000   0.00000   0.00000   0.00000   0.00000
  19       10PY         0.00000   0.00000   0.00000   0.00000   0.00000
  20       10PZ         0.00000   0.00000   0.00000   0.00000   0.00000
  21       11D 0        0.00000   0.00000   0.00000   0.00000   0.00000
  22       11D+1        0.00000   0.00000   0.00000   0.00000   0.00000
  23       11D-1        0.00000   0.00000   0.00000   0.00000   0.00000
  24       11D+2        0.00000  -0.00000  -0.00000   0.00000   0.00000
  25       11D-2        0.00000   0.00000   0.00000   0.00000   0.00000
  26       12D 0        0.00000   0.00000   0.00000   0.00000   0.00000
  27       12D+1        0.00000   0.00000   0.00000   0.00000   0.00000
  28       12D-1        0.00000   0.00000   0.00000   0.00000   0.00000
  29       12D+2       -0.00000  -0.00000   0.00000   0.00000  -0.00000
  30       12D-2        0.00000   0.00000   0.00000   0.00000   0.00000
  31       13F 0        0.00000   0.00000   0.00000   0.00000   0.00000
  32       13F+1        0.00000   0.00000   0.00000   0.00000   0.00000
  33       13F-1        0.00000   0.00000   0.00000   0.00000   0.00000
  34       13F+2        0.00000   0.00000   0.00000   0.00000   0.00000
  35       13F-2        0.00000   0.00000   0.00000   0.00000   0.00000
  36       13F+3        0.00000   0.00000   0.00000   0.00000   0.00000
  37       13F-3        0.00000   0.00000   0.00000   0.00000   0.00000
  38 2   H  1S          0.00000  -0.00001  -0.00027   0.00527   0.00054
  39        2S          0.00002  -0.00013  -0.00153   0.00476  -0.02014
  40        3S         -0.00003   0.00021   0.00224  -0.00663  -0.01548
  41        4PX         0.00001  -0.00007  -0.00094   0.00364   0.00138
  42        4PY         0.00000   0.00000   0.00000   0.00000   0.00000
  43        4PZ         0.00000   0.00000   0.00000   0.00000   0.00000
                           6         7         8         9        10
   6        6PX         1.06940
   7        6PY         0.00000   1.09927
   8        6PZ         0.00000   0.00000   1.09927
   9        7PX         0.32983   0.00000   0.00000   0.24843
  10        7PY         0.00000   0.33828   0.00000   0.00000   0.25420
  11        7PZ         0.00000   0.00000   0.33828   0.00000   0.00000
  12        8PX         0.00918   0.00000   0.00000   0.01126   0.00000
  13        8PY         0.00000  -0.00175   0.00000   0.00000  -0.00233
  14        8PZ         0.00000   0.00000  -0.00175   0.00000   0.00000
  15        9PX        -0.01545   0.00000   0.00000  -0.02619   0.00000
  16        9PY         0.00000  -0.02259   0.00000   0.00000  -0.03773
  17        9PZ         0.00000   0.00000  -0.02259   0.00000   0.00000
  18       10PX        -0.00157   0.00000   0.00000  -0.00302   0.00000
  19       10PY         0.00000  -0.00388   0.00000   0.00000  -0.00733
  20       10PZ         0.00000   0.00000  -0.00388   0.00000   0.00000
  21       11D 0        0.00000   0.00000   0.00000   0.00000   0.00000
  22       11D+1        0.00000   0.00000   0.00000   0.00000   0.00000
  23       11D-1        0.00000   0.00000   0.00000   0.00000   0.00000
  24       11D+2        0.00000   0.00000   0.00000   0.00000   0.00000
  25       11D-2        0.00000   0.00000   0.00000   0.00000   0.00000
  26       12D 0        0.00000   0.00000   0.00000   0.00000   0.00000
  27       12D+1        0.00000   0.00000   0.00000   0.00000   0.00000
  28       12D-1        0.00000   0.00000   0.00000   0.00000   0.00000
  29       12D+2        0.00000   0.00000   0.00000   0.00000   0.00000
  30       12D-2        0.00000   0.00000   0.00000   0.00000   0.00000
  31       13F 0        0.00000   0.00000   0.00000   0.00000   0.00000
  32       13F+1       -0.00000   0.00000   0.00000  -0.00000   0.00000
  33       13F-1        0.00000  -0.00000   0.00000   0.00000  -0.00000
  34       13F+2        0.00000   0.00000  -0.00000   0.00000   0.00000
  35       13F-2        0.00000   0.00000   0.00000   0.00000   0.00000
  36       13F+3        0.00000   0.00000   0.00000   0.00000   0.00000
  37       13F-3        0.00000  -0.00000   0.00000   0.00000  -0.00000
  38 2   H  1S         -0.00010   0.00000   0.00000  -0.00037   0.00000
  39        2S         -0.00152   0.00000   0.00000  -0.00300   0.00000
  40        3S         -0.00019   0.00000   0.00000  -0.00038   0.00000
  41        4PX        -0.00012   0.00000   0.00000  -0.00027   0.00000
  42        4PY         0.00000  -0.00002   0.00000   0.00000  -0.00005
  43        4PZ         0.00000   0.00000  -0.00002   0.00000   0.00000
                          11        12        13        14        15
  11        7PZ         0.25420
  12        8PX         0.00000   0.10033
  13        8PY         0.00000   0.00000   0.14859
  14        8PZ        -0.00233   0.00000   0.00000   0.14859
  15        9PX         0.00000   0.13077   0.00000   0.00000   0.35610
  16        9PY         0.00000   0.00000   0.20980   0.00000   0.00000
  17        9PZ        -0.03773   0.00000   0.00000   0.20980   0.00000
  18       10PX         0.00000   0.02545   0.00000   0.00000   0.11324
  19       10PY         0.00000   0.00000   0.06089   0.00000   0.00000
  20       10PZ        -0.00733   0.00000   0.00000   0.06089   0.00000
  21       11D 0        0.00000   0.00000   0.00000   0.00000   0.00000
  22       11D+1        0.00000   0.00000   0.00000   0.00000   0.00000
  23       11D-1        0.00000   0.00000   0.00000   0.00000   0.00000
  24       11D+2        0.00000   0.00000   0.00000   0.00000   0.00000
  25       11D-2        0.00000   0.00000   0.00000   0.00000   0.00000
  26       12D 0        0.00000   0.00000   0.00000   0.00000   0.00000
  27       12D+1        0.00000   0.00000   0.00000   0.00000   0.00000
  28       12D-1        0.00000   0.00000   0.00000   0.00000   0.00000
  29       12D+2        0.00000   0.00000   0.00000   0.00000   0.00000
  30       12D-2        0.00000   0.00000   0.00000   0.00000   0.00000
  31       13F 0        0.00000   0.00000   0.00000  -0.00000   0.00000
  32       13F+1        0.00000   0.00000   0.00000   0.00000   0.00000
  33       13F-1        0.00000   0.00000   0.00000   0.00000   0.00000
  34       13F+2        0.00000   0.00000   0.00000  -0.00000   0.00000
  35       13F-2        0.00000   0.00000   0.00000   0.00000   0.00000
  36       13F+3        0.00000  -0.00000   0.00000   0.00000  -0.00000
  37       13F-3        0.00000   0.00000   0.00000   0.00000   0.00000
  38 2   H  1S          0.00000   0.00664   0.00000   0.00000   0.04396
  39        2S          0.00000   0.02468   0.00000   0.00000   0.11008
  40        3S          0.00000   0.00280   0.00000   0.00000   0.01475
  41        4PX         0.00000   0.00246   0.00000   0.00000   0.00607
  42        4PY         0.00000   0.00000   0.00068   0.00000   0.00000
  43        4PZ        -0.00005   0.00000   0.00000   0.00068   0.00000
                          16        17        18        19        20
  16        9PY         0.58420
  17        9PZ         0.00000   0.58420
  18       10PX         0.00000   0.00000   0.07267
  19       10PY         0.28016   0.00000   0.00000   0.26950
  20       10PZ         0.00000   0.28016   0.00000   0.00000   0.26950
  21       11D 0        0.00000   0.00000   0.00000   0.00000   0.00000
  22       11D+1        0.00000   0.00000   0.00000   0.00000   0.00000
  23       11D-1        0.00000   0.00000   0.00000   0.00000   0.00000
  24       11D+2        0.00000   0.00000   0.00000   0.00000   0.00000
  25       11D-2        0.00000   0.00000   0.00000   0.00000   0.00000
  26       12D 0        0.00000   0.00000   0.00000   0.00000   0.00000
  27       12D+1        0.00000   0.00000   0.00000   0.00000   0.00000
  28       12D-1        0.00000   0.00000   0.00000   0.00000   0.00000
  29       12D+2        0.00000   0.00000   0.00000   0.00000   0.00000
  30       12D-2        0.00000   0.00000   0.00000   0.00000   0.00000
  31       13F 0        0.00000  -0.00000   0.00000   0.00000   0.00000
  32       13F+1        0.00000   0.00000   0.00000   0.00000   0.00000
  33       13F-1        0.00000   0.00000   0.00000   0.00000   0.00000
  34       13F+2        0.00000   0.00000   0.00000   0.00000  -0.00000
  35       13F-2        0.00000   0.00000   0.00000   0.00000   0.00000
  36       13F+3        0.00000   0.00000  -0.00000   0.00000   0.00000
  37       13F-3        0.00000   0.00000   0.00000   0.00000   0.00000
  38 2   H  1S          0.00000   0.00000   0.02140   0.00000   0.00000
  39        2S          0.00000   0.00000   0.06235   0.00000   0.00000
  40        3S          0.00000   0.00000   0.01245   0.00000   0.00000
  41        4PX         0.00000   0.00000   0.00045   0.00000   0.00000
  42        4PY         0.00373   0.00000   0.00000   0.00284   0.00000
  43        4PZ         0.00000   0.00373   0.00000   0.00000   0.00284
                          21        22        23        24        25
  21       11D 0        0.00121
  22       11D+1        0.00000   0.00006
  23       11D-1        0.00000   0.00000   0.00000
  24       11D+2       -0.00000   0.00000   0.00000   0.00362
  25       11D-2        0.00000   0.00000   0.00000   0.00000   0.00006
  26       12D 0        0.00058   0.00000   0.00000  -0.00000   0.00000
  27       12D+1        0.00000   0.00013   0.00000   0.00000   0.00000
  28       12D-1        0.00000   0.00000   0.00000   0.00000   0.00000
  29       12D+2        0.00000   0.00000   0.00000   0.00175   0.00000
  30       12D-2        0.00000   0.00000   0.00000   0.00000   0.00013
  31       13F 0        0.00000   0.00000   0.00000   0.00000   0.00000
  32       13F+1        0.00000   0.00000   0.00000   0.00000   0.00000
  33       13F-1        0.00000   0.00000   0.00000   0.00000   0.00000
  34       13F+2        0.00000   0.00000   0.00000   0.00000   0.00000
  35       13F-2        0.00000   0.00000   0.00000   0.00000   0.00000
  36       13F+3        0.00000   0.00000   0.00000   0.00000   0.00000
  37       13F-3        0.00000   0.00000   0.00000   0.00000   0.00000
  38 2   H  1S          0.00061   0.00000   0.00000   0.00182   0.00000
  39        2S          0.00096   0.00000   0.00000   0.00288   0.00000
  40        3S          0.00004   0.00000   0.00000   0.00012   0.00000
  41        4PX         0.00015   0.00000   0.00000   0.00044   0.00000
  42        4PY         0.00000   0.00000   0.00000   0.00000   0.00003
  43        4PZ         0.00000   0.00003   0.00000   0.00000   0.00000
                          26        27        28        29        30
  26       12D 0        0.00086
  27       12D+1        0.00000   0.00083
  28       12D-1        0.00000   0.00000   0.00000
  29       12D+2       -0.00000   0.00000   0.00000   0.00259
  30       12D-2        0.00000   0.00000   0.00000   0.00000   0.00083
  31       13F 0        0.00000   0.00000   0.00000   0.00000   0.00000
  32       13F+1        0.00000   0.00000   0.00000   0.00000   0.00000
  33       13F-1        0.00000   0.00000   0.00000   0.00000   0.00000
  34       13F+2        0.00000   0.00000   0.00000   0.00000   0.00000
  35       13F-2        0.00000   0.00000   0.00000   0.00000   0.00000
  36       13F+3        0.00000   0.00000   0.00000   0.00000   0.00000
  37       13F-3        0.00000   0.00000   0.00000   0.00000   0.00000
  38 2   H  1S          0.00159   0.00000   0.00000   0.00478   0.00000
  39        2S          0.00236   0.00000   0.00000   0.00709   0.00000
  40        3S          0.00015   0.00000   0.00000   0.00044   0.00000
  41        4PX         0.00008   0.00000   0.00000   0.00024   0.00000
  42        4PY         0.00000   0.00000   0.00000   0.00000   0.00030
  43        4PZ         0.00000   0.00030   0.00000   0.00000   0.00000
                          31        32        33        34        35
  31       13F 0        0.00005
  32       13F+1        0.00000   0.00020
  33       13F-1        0.00000   0.00000   0.00001
  34       13F+2       -0.00000   0.00000   0.00000   0.00008
  35       13F-2        0.00000   0.00000   0.00000   0.00000   0.00000
  36       13F+3        0.00000  -0.00000   0.00000   0.00000   0.00000
  37       13F-3        0.00000   0.00000   0.00000   0.00000   0.00000
  38 2   H  1S          0.00000   0.00065   0.00000   0.00000   0.00000
  39        2S          0.00000   0.00044   0.00000   0.00000   0.00000
  40        3S          0.00000   0.00001   0.00000   0.00000   0.00000
  41        4PX         0.00000   0.00005   0.00000   0.00000   0.00000
  42        4PY         0.00000   0.00000   0.00001   0.00000   0.00000
  43        4PZ         0.00004   0.00000   0.00000   0.00006   0.00000
                          36        37        38        39        40
  36       13F+3        0.00033
  37       13F-3        0.00000   0.00012
  38 2   H  1S          0.00108   0.00000   0.06561
  39        2S          0.00073   0.00000   0.06900   0.14965
  40        3S          0.00001   0.00000   0.00743   0.02510   0.00725
  41        4PX         0.00008   0.00000   0.00000   0.00000   0.00000
  42        4PY         0.00000   0.00009   0.00000   0.00000   0.00000
  43        4PZ         0.00000   0.00000   0.00000   0.00000   0.00000
                          41        42        43
  41        4PX         0.00110
  42        4PY         0.00000   0.00069
  43        4PZ         0.00000   0.00000   0.00069
     Gross orbital populations:
                           1
   1 1   Cl 1S          2.01403
   2        2S          0.42115
   3        3S          1.53516
   4        4S          1.09529
   5        5S          0.86958
   6        6PX         1.38945
   7        6PY         1.40930
   8        6PZ         1.40930
   9        7PX         0.55629
  10        7PY         0.54503
  11        7PZ         0.54503
  12        8PX         0.31357
  13        8PY         0.41588
  14        8PZ         0.41588
  15        9PX         0.73336
  16        9PY         1.01758
  17        9PZ         1.01758
  18       10PX         0.30342
  19       10PY         0.60219
  20       10PZ         0.60219
  21       11D 0        0.00354
  22       11D+1        0.00022
  23       11D-1        0.00000
  24       11D+2        0.01062
  25       11D-2        0.00022
  26       12D 0        0.00563
  27       12D+1        0.00126
  28       12D-1        0.00000
  29       12D+2        0.01689
  30       12D-2        0.00126
  31       13F 0        0.00008
  32       13F+1        0.00134
  33       13F-1        0.00002
  34       13F+2        0.00014
  35       13F-2        0.00000
  36       13F+3        0.00223
  37       13F-3        0.00021
  38 2   H  1S          0.22964
  39        2S          0.43379
  40        3S          0.05026
  41        4PX         0.01476
  42        4PY         0.00830
  43        4PZ         0.00830
          Condensed to atoms (all electrons):
               1          2
     1  Cl  16.937935   0.317007
     2  H    0.317007   0.428050
 Mulliken charges:
               1
     1  Cl  -0.254942
     2  H    0.254942
 Sum of Mulliken charges =   0.00000
 Mulliken charges with hydrogens summed into heavy atoms:
               1
     1  Cl   0.000000

 Bonding Mulliken population analysis:
      Bonding Density Matrix:
                           1         2         3         4         5
   1 1   Cl 1S          0.00000
   2        2S          0.00000   0.00000
   3        3S          0.00000   0.00000   0.00000
   4        4S          0.00000   0.00000   0.00000   0.00000
   5        5S          0.00000   0.00000   0.00000   0.00000   0.00000
   6        6PX         0.00000   0.00000   0.00000   0.00000   0.00000
   7        6PY         0.00000   0.00000   0.00000   0.00000   0.00000
   8        6PZ         0.00000   0.00000   0.00000   0.00000   0.00000
   9        7PX         0.00000   0.00000   0.00000   0.00000   0.00000
  10        7PY         0.00000   0.00000   0.00000   0.00000   0.00000
  11        7PZ         0.00000   0.00000   0.00000   0.00000   0.00000
  12        8PX         0.00000   0.00000   0.00000   0.00000   0.00000
  13        8PY         0.00000   0.00000   0.00000   0.00000   0.00000
  14        8PZ         0.00000   0.00000   0.00000   0.00000   0.00000
  15        9PX         0.00000   0.00000   0.00000   0.00000   0.00000
  16        9PY         0.00000   0.00000   0.00000   0.00000   0.00000
  17        9PZ         0.00000   0.00000   0.00000   0.00000   0.00000
  18       10PX         0.00000   0.00000   0.00000   0.00000   0.00000
  19       10PY         0.00000   0.00000   0.00000   0.00000   0.00000
  20       10PZ         0.00000   0.00000   0.00000   0.00000   0.00000
  21       11D 0        0.00000   0.00000   0.00000   0.00000   0.00000
  22       11D+1        0.00000   0.00000   0.00000   0.00000   0.00000
  23       11D-1        0.00000   0.00000   0.00000   0.00000   0.00000
  24       11D+2        0.00000   0.00000   0.00000   0.00000   0.00000
  25       11D-2        0.00000   0.00000   0.00000   0.00000   0.00000
  26       12D 0        0.00000   0.00000   0.00000   0.00000   0.00000
  27       12D+1        0.00000   0.00000   0.00000   0.00000   0.00000
  28       12D-1        0.00000   0.00000   0.00000   0.00000   0.00000
  29       12D+2        0.00000   0.00000   0.00000   0.00000   0.00000
  30       12D-2        0.00000   0.00000   0.00000   0.00000   0.00000
  31       13F 0        0.00000   0.00000   0.00000   0.00000   0.00000
  32       13F+1        0.00000   0.00000   0.00000   0.00000   0.00000
  33       13F-1        0.00000   0.00000   0.00000   0.00000   0.00000
  34       13F+2        0.00000   0.00000   0.00000   0.00000   0.00000
  35       13F-2        0.00000   0.00000   0.00000   0.00000   0.00000
  36       13F+3        0.00000   0.00000   0.00000   0.00000   0.00000
  37       13F-3        0.00000   0.00000   0.00000   0.00000   0.00000
  38 2   H  1S          0.00708   0.00565  -0.03887   0.05145   0.00259
  39        2S          0.00241   0.00304  -0.01756   0.01566  -0.04235
  40        3S         -0.00242  -0.00327   0.01770  -0.01676  -0.02403
  41        4PX         0.00178   0.00241  -0.01371   0.01378   0.00602
  42        4PY        -0.00000  -0.00000   0.00000  -0.00000  -0.00000
  43        4PZ        -0.00000  -0.00000   0.00000  -0.00000  -0.00000
                           6         7         8         9        10
   6        6PX         0.00000
   7        6PY         0.00000   0.00000
   8        6PZ         0.00000   0.00000   0.00000
   9        7PX         0.00000   0.00000   0.00000   0.00000
  10        7PY         0.00000   0.00000   0.00000   0.00000   0.00000
  11        7PZ         0.00000   0.00000   0.00000   0.00000   0.00000
  12        8PX         0.00000   0.00000   0.00000   0.00000   0.00000
  13        8PY         0.00000   0.00000   0.00000   0.00000   0.00000
  14        8PZ         0.00000   0.00000   0.00000   0.00000   0.00000
  15        9PX         0.00000   0.00000   0.00000   0.00000   0.00000
  16        9PY         0.00000   0.00000   0.00000   0.00000   0.00000
  17        9PZ         0.00000   0.00000   0.00000   0.00000   0.00000
  18       10PX         0.00000   0.00000   0.00000   0.00000   0.00000
  19       10PY         0.00000   0.00000   0.00000   0.00000   0.00000
  20       10PZ         0.00000   0.00000   0.00000   0.00000   0.00000
  21       11D 0        0.00000   0.00000   0.00000   0.00000   0.00000
  22       11D+1        0.00000   0.00000   0.00000   0.00000   0.00000
  23       11D-1        0.00000   0.00000   0.00000   0.00000   0.00000
  24       11D+2        0.00000   0.00000   0.00000   0.00000   0.00000
  25       11D-2        0.00000   0.00000   0.00000   0.00000   0.00000
  26       12D 0        0.00000   0.00000   0.00000   0.00000   0.00000
  27       12D+1        0.00000   0.00000   0.00000   0.00000   0.00000
  28       12D-1        0.00000   0.00000   0.00000   0.00000   0.00000
  29       12D+2        0.00000   0.00000   0.00000   0.00000   0.00000
  30       12D-2        0.00000   0.00000   0.00000   0.00000   0.00000
  31       13F 0        0.00000   0.00000   0.00000   0.00000   0.00000
  32       13F+1        0.00000   0.00000   0.00000   0.00000   0.00000
  33       13F-1        0.00000   0.00000   0.00000   0.00000   0.00000
  34       13F+2        0.00000   0.00000   0.00000   0.00000   0.00000
  35       13F-2        0.00000   0.00000   0.00000   0.00000   0.00000
  36       13F+3        0.00000   0.00000   0.00000   0.00000   0.00000
  37       13F-3        0.00000   0.00000   0.00000   0.00000   0.00000
  38 2   H  1S          0.05691  -0.00000   0.00000   0.02803  -0.00000
  39        2S          0.08814   0.00000  -0.00000   0.04334   0.00000
  40        3S          0.02302  -0.00000   0.00000   0.01125  -0.00000
  41        4PX         0.00548   0.00000   0.00000   0.00272   0.00000
  42        4PY        -0.00000  -0.00722  -0.00000  -0.00000  -0.00348
  43        4PZ        -0.00000  -0.00000  -0.00722  -0.00000  -0.00000
                          11        12        13        14        15
  11        7PZ         0.00000
  12        8PX         0.00000   0.00000
  13        8PY         0.00000   0.00000   0.00000
  14        8PZ         0.00000   0.00000   0.00000   0.00000
  15        9PX         0.00000   0.00000   0.00000   0.00000   0.00000
  16        9PY         0.00000   0.00000   0.00000   0.00000   0.00000
  17        9PZ         0.00000   0.00000   0.00000   0.00000   0.00000
  18       10PX         0.00000   0.00000   0.00000   0.00000   0.00000
  19       10PY         0.00000   0.00000   0.00000   0.00000   0.00000
  20       10PZ         0.00000   0.00000   0.00000   0.00000   0.00000
  21       11D 0        0.00000   0.00000   0.00000   0.00000   0.00000
  22       11D+1        0.00000   0.00000   0.00000   0.00000   0.00000
  23       11D-1        0.00000   0.00000   0.00000   0.00000   0.00000
  24       11D+2        0.00000   0.00000   0.00000   0.00000   0.00000
  25       11D-2        0.00000   0.00000   0.00000   0.00000   0.00000
  26       12D 0        0.00000   0.00000   0.00000   0.00000   0.00000
  27       12D+1        0.00000   0.00000   0.00000   0.00000   0.00000
  28       12D-1        0.00000   0.00000   0.00000   0.00000   0.00000
  29       12D+2        0.00000   0.00000   0.00000   0.00000   0.00000
  30       12D-2        0.00000   0.00000   0.00000   0.00000   0.00000
  31       13F 0        0.00000   0.00000   0.00000   0.00000   0.00000
  32       13F+1        0.00000   0.00000   0.00000   0.00000   0.00000
  33       13F-1        0.00000   0.00000   0.00000   0.00000   0.00000
  34       13F+2        0.00000   0.00000   0.00000   0.00000   0.00000
  35       13F-2        0.00000   0.00000   0.00000   0.00000   0.00000
  36       13F+3        0.00000   0.00000   0.00000   0.00000   0.00000
  37       13F-3        0.00000   0.00000   0.00000   0.00000   0.00000
  38 2   H  1S          0.00000  -0.07146  -0.00000   0.00000  -0.14184
  39        2S         -0.00000  -0.11357   0.00000  -0.00000  -0.22537
  40        3S          0.00000  -0.02509  -0.00000   0.00000  -0.05073
  41        4PX         0.00000  -0.00823   0.00000  -0.00000  -0.01603
  42        4PY        -0.00000  -0.00000   0.00980  -0.00000   0.00000
  43        4PZ        -0.00348  -0.00000   0.00000   0.00980  -0.00000
                          16        17        18        19        20
  16        9PY         0.00000
  17        9PZ         0.00000   0.00000
  18       10PX         0.00000   0.00000   0.00000
  19       10PY         0.00000   0.00000   0.00000   0.00000
  20       10PZ         0.00000   0.00000   0.00000   0.00000   0.00000
  21       11D 0        0.00000   0.00000   0.00000   0.00000   0.00000
  22       11D+1        0.00000   0.00000   0.00000   0.00000   0.00000
  23       11D-1        0.00000   0.00000   0.00000   0.00000   0.00000
  24       11D+2        0.00000   0.00000   0.00000   0.00000   0.00000
  25       11D-2        0.00000   0.00000   0.00000   0.00000   0.00000
  26       12D 0        0.00000   0.00000   0.00000   0.00000   0.00000
  27       12D+1        0.00000   0.00000   0.00000   0.00000   0.00000
  28       12D-1        0.00000   0.00000   0.00000   0.00000   0.00000
  29       12D+2        0.00000   0.00000   0.00000   0.00000   0.00000
  30       12D-2        0.00000   0.00000   0.00000   0.00000   0.00000
  31       13F 0        0.00000   0.00000   0.00000   0.00000   0.00000
  32       13F+1        0.00000   0.00000   0.00000   0.00000   0.00000
  33       13F-1        0.00000   0.00000   0.00000   0.00000   0.00000
  34       13F+2        0.00000   0.00000   0.00000   0.00000   0.00000
  35       13F-2        0.00000   0.00000   0.00000   0.00000   0.00000
  36       13F+3        0.00000   0.00000   0.00000   0.00000   0.00000
  37       13F-3        0.00000   0.00000   0.00000   0.00000   0.00000
  38 2   H  1S          0.00000   0.00000  -0.06242   0.00000  -0.00000
  39        2S          0.00000   0.00000  -0.10036   0.00000  -0.00000
  40        3S          0.00000   0.00000  -0.02287   0.00000   0.00000
  41        4PX         0.00000  -0.00000  -0.00694   0.00000  -0.00000
  42        4PY         0.02004  -0.00000  -0.00000   0.01362  -0.00000
  43        4PZ         0.00000   0.02004  -0.00000   0.00000   0.01362
                          21        22        23        24        25
  21       11D 0        0.00000
  22       11D+1        0.00000   0.00000
  23       11D-1        0.00000   0.00000   0.00000
  24       11D+2        0.00000   0.00000   0.00000   0.00000
  25       11D-2        0.00000   0.00000   0.00000   0.00000   0.00000
  26       12D 0        0.00000   0.00000   0.00000   0.00000   0.00000
  27       12D+1        0.00000   0.00000   0.00000   0.00000   0.00000
  28       12D-1        0.00000   0.00000   0.00000   0.00000   0.00000
  29       12D+2        0.00000   0.00000   0.00000   0.00000   0.00000
  30       12D-2        0.00000   0.00000   0.00000   0.00000   0.00000
  31       13F 0        0.00000   0.00000   0.00000   0.00000   0.00000
  32       13F+1        0.00000   0.00000   0.00000   0.00000   0.00000
  33       13F-1        0.00000   0.00000   0.00000   0.00000   0.00000
  34       13F+2        0.00000   0.00000   0.00000   0.00000   0.00000
  35       13F-2        0.00000   0.00000   0.00000   0.00000   0.00000
  36       13F+3        0.00000   0.00000   0.00000   0.00000   0.00000
  37       13F-3        0.00000   0.00000   0.00000   0.00000   0.00000
  38 2   H  1S         -0.00883  -0.00000  -0.00000   0.01529   0.00000
  39        2S         -0.01341  -0.00000  -0.00000   0.02323   0.00000
  40        3S         -0.00282  -0.00000   0.00000   0.00489   0.00000
  41        4PX        -0.00107  -0.00000  -0.00000   0.00186  -0.00000
  42        4PY         0.00000  -0.00000   0.00000   0.00000  -0.00021
  43        4PZ        -0.00000  -0.00021  -0.00000   0.00000  -0.00000
                          26        27        28        29        30
  26       12D 0        0.00000
  27       12D+1        0.00000   0.00000
  28       12D-1        0.00000   0.00000   0.00000
  29       12D+2        0.00000   0.00000   0.00000   0.00000
  30       12D-2        0.00000   0.00000   0.00000   0.00000   0.00000
  31       13F 0        0.00000   0.00000   0.00000   0.00000   0.00000
  32       13F+1        0.00000   0.00000   0.00000   0.00000   0.00000
  33       13F-1        0.00000   0.00000   0.00000   0.00000   0.00000
  34       13F+2        0.00000   0.00000   0.00000   0.00000   0.00000
  35       13F-2        0.00000   0.00000   0.00000   0.00000   0.00000
  36       13F+3        0.00000   0.00000   0.00000   0.00000   0.00000
  37       13F-3        0.00000   0.00000   0.00000   0.00000   0.00000
  38 2   H  1S         -0.00747  -0.00000   0.00000   0.01293   0.00000
  39        2S         -0.01134  -0.00000   0.00000   0.01964   0.00000
  40        3S         -0.00239  -0.00000   0.00000   0.00414   0.00000
  41        4PX        -0.00091  -0.00000   0.00000   0.00157  -0.00000
  42        4PY        -0.00000   0.00000   0.00000  -0.00000  -0.00076
  43        4PZ         0.00000  -0.00076  -0.00000   0.00000   0.00000
                          31        32        33        34        35
  31       13F 0        0.00000
  32       13F+1        0.00000   0.00000
  33       13F-1        0.00000   0.00000   0.00000
  34       13F+2        0.00000   0.00000   0.00000   0.00000
  35       13F-2        0.00000   0.00000   0.00000   0.00000   0.00000
  36       13F+3        0.00000   0.00000   0.00000   0.00000   0.00000
  37       13F-3        0.00000   0.00000   0.00000   0.00000   0.00000
  38 2   H  1S          0.00000   0.00359  -0.00000  -0.00000  -0.00000
  39        2S          0.00000   0.00536  -0.00000  -0.00000  -0.00000
  40        3S         -0.00000   0.00110   0.00000  -0.00000  -0.00000
  41        4PX         0.00000   0.00045  -0.00000  -0.00000  -0.00000
  42        4PY        -0.00000  -0.00000  -0.00008   0.00000   0.00000
  43        4PZ        -0.00018   0.00000   0.00000   0.00024   0.00000
                          36        37        38        39        40
  36       13F+3        0.00000
  37       13F-3        0.00000   0.00000
  38 2   H  1S         -0.00464  -0.00000   0.00000
  39        2S         -0.00692  -0.00000   0.00000   0.00000
  40        3S         -0.00142  -0.00000   0.00000   0.00000   0.00000
  41        4PX        -0.00058   0.00000   0.00000   0.00000   0.00000
  42        4PY         0.00000   0.00029   0.00000   0.00000   0.00000
  43        4PZ         0.00000   0.00000   0.00000   0.00000   0.00000
                          41        42        43
  41        4PX         0.00000
  42        4PY         0.00000   0.00000
  43        4PZ         0.00000   0.00000   0.00000
    Full Bonding Mulliken population analysis:
                           1         2         3         4         5
   1 1   Cl 1S          0.00000
   2        2S          0.00000   0.00000
   3        3S          0.00000   0.00000   0.00000
   4        4S          0.00000   0.00000   0.00000   0.00000
   5        5S          0.00000   0.00000   0.00000   0.00000   0.00000
   6        6PX         0.00000   0.00000   0.00000   0.00000   0.00000
   7        6PY         0.00000   0.00000   0.00000   0.00000   0.00000
   8        6PZ         0.00000   0.00000   0.00000   0.00000   0.00000
   9        7PX         0.00000   0.00000   0.00000   0.00000   0.00000
  10        7PY         0.00000   0.00000   0.00000   0.00000   0.00000
  11        7PZ         0.00000   0.00000   0.00000   0.00000   0.00000
  12        8PX         0.00000   0.00000   0.00000   0.00000   0.00000
  13        8PY         0.00000   0.00000   0.00000   0.00000   0.00000
  14        8PZ         0.00000   0.00000   0.00000   0.00000   0.00000
  15        9PX         0.00000   0.00000   0.00000   0.00000   0.00000
  16        9PY         0.00000   0.00000   0.00000   0.00000   0.00000
  17        9PZ         0.00000   0.00000   0.00000   0.00000   0.00000
  18       10PX         0.00000   0.00000   0.00000   0.00000   0.00000
  19       10PY         0.00000   0.00000   0.00000   0.00000   0.00000
  20       10PZ         0.00000   0.00000   0.00000   0.00000   0.00000
  21       11D 0        0.00000   0.00000   0.00000   0.00000   0.00000
  22       11D+1        0.00000   0.00000   0.00000   0.00000   0.00000
  23       11D-1        0.00000   0.00000   0.00000   0.00000   0.00000
  24       11D+2        0.00000   0.00000   0.00000   0.00000   0.00000
  25       11D-2        0.00000   0.00000   0.00000   0.00000   0.00000
  26       12D 0        0.00000   0.00000   0.00000   0.00000   0.00000
  27       12D+1        0.00000   0.00000   0.00000   0.00000   0.00000
  28       12D-1        0.00000   0.00000   0.00000   0.00000   0.00000
  29       12D+2        0.00000   0.00000   0.00000   0.00000   0.00000
  30       12D-2        0.00000   0.00000   0.00000   0.00000   0.00000
  31       13F 0        0.00000   0.00000   0.00000   0.00000   0.00000
  32       13F+1        0.00000   0.00000   0.00000   0.00000   0.00000
  33       13F-1        0.00000   0.00000   0.00000   0.00000   0.00000
  34       13F+2        0.00000   0.00000   0.00000   0.00000   0.00000
  35       13F-2        0.00000   0.00000   0.00000   0.00000   0.00000
  36       13F+3        0.00000   0.00000   0.00000   0.00000   0.00000
  37       13F-3        0.00000   0.00000   0.00000   0.00000   0.00000
  38 2   H  1S          0.00000  -0.00001  -0.00027   0.00527   0.00054
  39        2S          0.00002  -0.00013  -0.00153   0.00476  -0.02014
  40        3S         -0.00003   0.00021   0.00224  -0.00663  -0.01548
  41        4PX         0.00001  -0.00007  -0.00094   0.00364   0.00138
  42        4PY         0.00000   0.00000   0.00000   0.00000   0.00000
  43        4PZ         0.00000   0.00000   0.00000   0.00000   0.00000
                           6         7         8         9        10
   6        6PX         0.00000
   7        6PY         0.00000   0.00000
   8        6PZ         0.00000   0.00000   0.00000
   9        7PX         0.00000   0.00000   0.00000   0.00000
  10        7PY         0.00000   0.00000   0.00000   0.00000   0.00000
  11        7PZ         0.00000   0.00000   0.00000   0.00000   0.00000
  12        8PX         0.00000   0.00000   0.00000   0.00000   0.00000
  13        8PY         0.00000   0.00000   0.00000   0.00000   0.00000
  14        8PZ         0.00000   0.00000   0.00000   0.00000   0.00000
  15        9PX         0.00000   0.00000   0.00000   0.00000   0.00000
  16        9PY         0.00000   0.00000   0.00000   0.00000   0.00000
  17        9PZ         0.00000   0.00000   0.00000   0.00000   0.00000
  18       10PX         0.00000   0.00000   0.00000   0.00000   0.00000
  19       10PY         0.00000   0.00000   0.00000   0.00000   0.00000
  20       10PZ         0.00000   0.00000   0.00000   0.00000   0.00000
  21       11D 0        0.00000   0.00000   0.00000   0.00000   0.00000
  22       11D+1        0.00000   0.00000   0.00000   0.00000   0.00000
  23       11D-1        0.00000   0.00000   0.00000   0.00000   0.00000
  24       11D+2        0.00000   0.00000   0.00000   0.00000   0.00000
  25       11D-2        0.00000   0.00000   0.00000   0.00000   0.00000
  26       12D 0        0.00000   0.00000   0.00000   0.00000   0.00000
  27       12D+1        0.00000   0.00000   0.00000   0.00000   0.00000
  28       12D-1        0.00000   0.00000   0.00000   0.00000   0.00000
  29       12D+2        0.00000   0.00000   0.00000   0.00000   0.00000
  30       12D-2        0.00000   0.00000   0.00000   0.00000   0.00000
  31       13F 0        0.00000   0.00000   0.00000   0.00000   0.00000
  32       13F+1        0.00000   0.00000   0.00000   0.00000   0.00000
  33       13F-1        0.00000   0.00000   0.00000   0.00000   0.00000
  34       13F+2        0.00000   0.00000   0.00000   0.00000   0.00000
  35       13F-2        0.00000   0.00000   0.00000   0.00000   0.00000
  36       13F+3        0.00000   0.00000   0.00000   0.00000   0.00000
  37       13F-3        0.00000   0.00000   0.00000   0.00000   0.00000
  38 2   H  1S         -0.00010   0.00000   0.00000  -0.00037   0.00000
  39        2S         -0.00152   0.00000   0.00000  -0.00300   0.00000
  40        3S         -0.00019   0.00000   0.00000  -0.00038   0.00000
  41        4PX        -0.00012   0.00000   0.00000  -0.00027   0.00000
  42        4PY         0.00000  -0.00002   0.00000   0.00000  -0.00005
  43        4PZ         0.00000   0.00000  -0.00002   0.00000   0.00000
                          11        12        13        14        15
  11        7PZ         0.00000
  12        8PX         0.00000   0.00000
  13        8PY         0.00000   0.00000   0.00000
  14        8PZ         0.00000   0.00000   0.00000   0.00000
  15        9PX         0.00000   0.00000   0.00000   0.00000   0.00000
  16        9PY         0.00000   0.00000   0.00000   0.00000   0.00000
  17        9PZ         0.00000   0.00000   0.00000   0.00000   0.00000
  18       10PX         0.00000   0.00000   0.00000   0.00000   0.00000
  19       10PY         0.00000   0.00000   0.00000   0.00000   0.00000
  20       10PZ         0.00000   0.00000   0.00000   0.00000   0.00000
  21       11D 0        0.00000   0.00000   0.00000   0.00000   0.00000
  22       11D+1        0.00000   0.00000   0.00000   0.00000   0.00000
  23       11D-1        0.00000   0.00000   0.00000   0.00000   0.00000
  24       11D+2        0.00000   0.00000   0.00000   0.00000   0.00000
  25       11D-2        0.00000   0.00000   0.00000   0.00000   0.00000
  26       12D 0        0.00000   0.00000   0.00000   0.00000   0.00000
  27       12D+1        0.00000   0.00000   0.00000   0.00000   0.00000
  28       12D-1        0.00000   0.00000   0.00000   0.00000   0.00000
  29       12D+2        0.00000   0.00000   0.00000   0.00000   0.00000
  30       12D-2        0.00000   0.00000   0.00000   0.00000   0.00000
  31       13F 0        0.00000   0.00000   0.00000   0.00000   0.00000
  32       13F+1        0.00000   0.00000   0.00000   0.00000   0.00000
  33       13F-1        0.00000   0.00000   0.00000   0.00000   0.00000
  34       13F+2        0.00000   0.00000   0.00000   0.00000   0.00000
  35       13F-2        0.00000   0.00000   0.00000   0.00000   0.00000
  36       13F+3        0.00000   0.00000   0.00000   0.00000   0.00000
  37       13F-3        0.00000   0.00000   0.00000   0.00000   0.00000
  38 2   H  1S          0.00000   0.00664   0.00000   0.00000   0.04396
  39        2S          0.00000   0.02468   0.00000   0.00000   0.11008
  40        3S          0.00000   0.00280   0.00000   0.00000   0.01475
  41        4PX         0.00000   0.00246   0.00000   0.00000   0.00607
  42        4PY         0.00000   0.00000   0.00068   0.00000   0.00000
  43        4PZ        -0.00005   0.00000   0.00000   0.00068   0.00000
                          16        17        18        19        20
  16        9PY         0.00000
  17        9PZ         0.00000   0.00000
  18       10PX         0.00000   0.00000   0.00000
  19       10PY         0.00000   0.00000   0.00000   0.00000
  20       10PZ         0.00000   0.00000   0.00000   0.00000   0.00000
  21       11D 0        0.00000   0.00000   0.00000   0.00000   0.00000
  22       11D+1        0.00000   0.00000   0.00000   0.00000   0.00000
  23       11D-1        0.00000   0.00000   0.00000   0.00000   0.00000
  24       11D+2        0.00000   0.00000   0.00000   0.00000   0.00000
  25       11D-2        0.00000   0.00000   0.00000   0.00000   0.00000
  26       12D 0        0.00000   0.00000   0.00000   0.00000   0.00000
  27       12D+1        0.00000   0.00000   0.00000   0.00000   0.00000
  28       12D-1        0.00000   0.00000   0.00000   0.00000   0.00000
  29       12D+2        0.00000   0.00000   0.00000   0.00000   0.00000
  30       12D-2        0.00000   0.00000   0.00000   0.00000   0.00000
  31       13F 0        0.00000   0.00000   0.00000   0.00000   0.00000
  32       13F+1        0.00000   0.00000   0.00000   0.00000   0.00000
  33       13F-1        0.00000   0.00000   0.00000   0.00000   0.00000
  34       13F+2        0.00000   0.00000   0.00000   0.00000   0.00000
  35       13F-2        0.00000   0.00000   0.00000   0.00000   0.00000
  36       13F+3        0.00000   0.00000   0.00000   0.00000   0.00000
  37       13F-3        0.00000   0.00000   0.00000   0.00000   0.00000
  38 2   H  1S          0.00000   0.00000   0.02140   0.00000   0.00000
  39        2S          0.00000   0.00000   0.06235   0.00000   0.00000
  40        3S          0.00000   0.00000   0.01245   0.00000   0.00000
  41        4PX         0.00000   0.00000   0.00045   0.00000   0.00000
  42        4PY         0.00373   0.00000   0.00000   0.00284   0.00000
  43        4PZ         0.00000   0.00373   0.00000   0.00000   0.00284
                          21        22        23        24        25
  21       11D 0        0.00000
  22       11D+1        0.00000   0.00000
  23       11D-1        0.00000   0.00000   0.00000
  24       11D+2        0.00000   0.00000   0.00000   0.00000
  25       11D-2        0.00000   0.00000   0.00000   0.00000   0.00000
  26       12D 0        0.00000   0.00000   0.00000   0.00000   0.00000
  27       12D+1        0.00000   0.00000   0.00000   0.00000   0.00000
  28       12D-1        0.00000   0.00000   0.00000   0.00000   0.00000
  29       12D+2        0.00000   0.00000   0.00000   0.00000   0.00000
  30       12D-2        0.00000   0.00000   0.00000   0.00000   0.00000
  31       13F 0        0.00000   0.00000   0.00000   0.00000   0.00000
  32       13F+1        0.00000   0.00000   0.00000   0.00000   0.00000
  33       13F-1        0.00000   0.00000   0.00000   0.00000   0.00000
  34       13F+2        0.00000   0.00000   0.00000   0.00000   0.00000
  35       13F-2        0.00000   0.00000   0.00000   0.00000   0.00000
  36       13F+3        0.00000   0.00000   0.00000   0.00000   0.00000
  37       13F-3        0.00000   0.00000   0.00000   0.00000   0.00000
  38 2   H  1S          0.00061   0.00000   0.00000   0.00182   0.00000
  39        2S          0.00096   0.00000   0.00000   0.00288   0.00000
  40        3S          0.00004   0.00000   0.00000   0.00012   0.00000
  41        4PX         0.00015   0.00000   0.00000   0.00044   0.00000
  42        4PY         0.00000   0.00000   0.00000   0.00000   0.00003
  43        4PZ         0.00000   0.00003   0.00000   0.00000   0.00000
                          26        27        28        29        30
  26       12D 0        0.00000
  27       12D+1        0.00000   0.00000
  28       12D-1        0.00000   0.00000   0.00000
  29       12D+2        0.00000   0.00000   0.00000   0.00000
  30       12D-2        0.00000   0.00000   0.00000   0.00000   0.00000
  31       13F 0        0.00000   0.00000   0.00000   0.00000   0.00000
  32       13F+1        0.00000   0.00000   0.00000   0.00000   0.00000
  33       13F-1        0.00000   0.00000   0.00000   0.00000   0.00000
  34       13F+2        0.00000   0.00000   0.00000   0.00000   0.00000
  35       13F-2        0.00000   0.00000   0.00000   0.00000   0.00000
  36       13F+3        0.00000   0.00000   0.00000   0.00000   0.00000
  37       13F-3        0.00000   0.00000   0.00000   0.00000   0.00000
  38 2   H  1S          0.00159   0.00000   0.00000   0.00478   0.00000
  39        2S          0.00236   0.00000   0.00000   0.00709   0.00000
  40        3S          0.00015   0.00000   0.00000   0.00044   0.00000
  41        4PX         0.00008   0.00000   0.00000   0.00024   0.00000
  42        4PY         0.00000   0.00000   0.00000   0.00000   0.00030
  43        4PZ         0.00000   0.00030   0.00000   0.00000   0.00000
                          31        32        33        34        35
  31       13F 0        0.00000
  32       13F+1        0.00000   0.00000
  33       13F-1        0.00000   0.00000   0.00000
  34       13F+2        0.00000   0.00000   0.00000   0.00000
  35       13F-2        0.00000   0.00000   0.00000   0.00000   0.00000
  36       13F+3        0.00000   0.00000   0.00000   0.00000   0.00000
  37       13F-3        0.00000   0.00000   0.00000   0.00000   0.00000
  38 2   H  1S          0.00000   0.00065   0.00000   0.00000   0.00000
  39        2S          0.00000   0.00044   0.00000   0.00000   0.00000
  40        3S          0.00000   0.00001   0.00000   0.00000   0.00000
  41        4PX         0.00000   0.00005   0.00000   0.00000   0.00000
  42        4PY         0.00000   0.00000   0.00001   0.00000   0.00000
  43        4PZ         0.00004   0.00000   0.00000   0.00006   0.00000
                          36        37        38        39        40
  36       13F+3        0.00000
  37       13F-3        0.00000   0.00000
  38 2   H  1S          0.00108   0.00000   0.00000
  39        2S          0.00073   0.00000   0.00000   0.00000
  40        3S          0.00001   0.00000   0.00000   0.00000   0.00000
  41        4PX         0.00008   0.00000   0.00000   0.00000   0.00000
  42        4PY         0.00000   0.00009   0.00000   0.00000   0.00000
  43        4PZ         0.00000   0.00000   0.00000   0.00000   0.00000
                          41        42        43
  41        4PX         0.00000
  42        4PY         0.00000   0.00000
  43        4PZ         0.00000   0.00000   0.00000
     Bonding Gross orbital populations:
                           1
   1 1   Cl 1S         -0.00000
   2        2S          0.00001
   3        3S         -0.00050
   4        4S          0.00704
   5        5S         -0.03370
   6        6PX        -0.00194
   7        6PY        -0.00002
   8        6PZ        -0.00002
   9        7PX        -0.00402
  10        7PY        -0.00005
  11        7PZ        -0.00005
  12        8PX         0.03658
  13        8PY         0.00068
  14        8PZ         0.00068
  15        9PX         0.17487
  16        9PY         0.00373
  17        9PZ         0.00373
  18       10PX         0.09666
  19       10PY         0.00284
  20       10PZ         0.00284
  21       11D 0        0.00175
  22       11D+1        0.00003
  23       11D-1        0.00000
  24       11D+2        0.00526
  25       11D-2        0.00003
  26       12D 0        0.00418
  27       12D+1        0.00030
  28       12D-1        0.00000
  29       12D+2        0.01255
  30       12D-2        0.00030
  31       13F 0        0.00004
  32       13F+1        0.00114
  33       13F-1        0.00001
  34       13F+2        0.00006
  35       13F-2        0.00000
  36       13F+3        0.00190
  37       13F-3        0.00009
  38 2   H  1S          0.08760
  39        2S          0.19004
  40        3S          0.01048
  41        4PX         0.01366
  42        4PY         0.00761
  43        4PZ         0.00761
          Bonding Condensed to atoms (all electrons):
               1          2
     1  Cl   0.000000   0.317007
     2  H    0.317007   0.000000
 Bonding Mulliken charges:
               1
     1  Cl  16.682993
     2  H    0.682993
 Sum of Bonding Mulliken charges =  17.36599
 Bonding Mulliken charges with hydrogens summed into heavy atoms:
               1
     1  Cl  17.365985
 APT charges:
               1
     1  Cl  -0.200135
     2  H    0.200135
 Sum of APT charges =   0.00000
 APT charges with hydrogens summed into heavy atoms:
               1
     1  Cl   0.000000
 Electronic spatial extent (au):  <R**2>=             33.9113
 Charge=              0.0000 electrons
 Dipole moment (field-independent basis, Debye):
    X=             -1.2592    Y=              0.0000    Z=             -0.0000  Tot=              1.2592
 Quadrupole moment (field-independent basis, Debye-Ang):
   XX=            -10.2169   YY=            -13.9465   ZZ=            -13.9465
   XY=              0.0000   XZ=             -0.0000   YZ=              0.0000
 Traceless Quadrupole moment (field-independent basis, Debye-Ang):
   XX=              2.4864   YY=             -1.2432   ZZ=             -1.2432
   XY=              0.0000   XZ=             -0.0000   YZ=              0.0000
 Octapole moment (field-independent basis, Debye-Ang**2):
  XXX=             -1.7846  YYY=              0.0000  ZZZ=             -0.0000  XYY=              0.2506
  XXY=              0.0000  XXZ=             -0.0000  XZZ=              0.2506  YZZ=              0.0000
  YYZ=             -0.0000  XYZ=             -0.0000
 Hexadecapole moment (field-independent basis, Debye-Ang**3):
 XXXX=            -13.0843 YYYY=            -15.8880 ZZZZ=            -15.8880 XXXY=              0.0000
 XXXZ=              0.0000 YYYX=              0.0000 YYYZ=              0.0000 ZZZX=             -0.0000
 ZZZY=              0.0000 XXYY=             -5.6020 XXZZ=             -5.6020 YYZZ=             -5.2958
 XXYZ=              0.0000 YYXZ=             -0.0000 ZZXY=              0.0000
 N-N= 7.036536711573D+00 E-N=-1.110345733362D+03  KE= 4.603288761015D+02
 Orbital energies and kinetic energies (alpha):
                                 1                 2
   1         O              -102.618116        137.010100
   2         O                -9.773101         21.557344
   3         O                -7.521278         20.651921
   4         O                -7.516055         20.693954
   5         O                -7.516055         20.693954
   6         O                -0.938578          2.896601
   7         O                -0.537909          2.029850
   8         O                -0.398792          2.315357
   9         O                -0.398792          2.315357
  10         V                 0.029580          0.995877
  11         V                 0.203727          0.944112
  12         V                 0.379793          1.643133
  13         V                 0.379793          1.643133
  14         V                 0.385967          1.889196
  15         V                 0.438550          1.480263
  16         V                 0.438550          1.480263
  17         V                 0.478483          1.513665
  18         V                 0.478789          1.513204
  19         V                 0.662966          2.934312
  20         V                 0.777332          2.612992
  21         V                 1.513286          2.588124
  22         V                 1.513286          2.588124
  23         V                 1.724959          3.567807
  24         V                 1.792148          4.595093
  25         V                 1.792148          4.595093
  26         V                 1.794591          4.838194
  27         V                 1.794768          4.837761
  28         V                 1.940823          4.260644
  29         V                 2.114041          3.176782
  30         V                 2.114679          3.176809
  31         V                 2.141656          3.177001
  32         V                 2.141656          3.177001
  33         V                 2.201077          6.502258
  34         V                 2.211258          6.820469
  35         V                 2.211258          6.820469
  36         V                 2.499678          3.692426
  37         V                 2.499678          3.692426
  38         V                 2.524400          4.385246
  39         V                 3.294131          5.003437
  40         V                10.748756         33.647082
  41         V                10.748756         33.647082
  42         V                10.824515         33.767942
  43         V                24.598135         43.849762
 Total kinetic energy from orbitals= 4.603288761015D+02
  Exact polarizability:  14.892  -0.000  10.092  -0.000   0.000  10.092
 Approx polarizability:  19.190  -0.000  12.496  -0.000   0.000  12.496
   1 Symmetry operations used in ECPInt.
 ECPInt:  NShTT=     153 NPrTT=     600 LenC2=     154 LenP2D=     587.
 LDataN:  DoStor=T MaxTD1= 8 Len=  415
 Calling FoFJK, ICntrl=    100127 FMM=F ISym2X=0 I1Cent= 0 IOpClX= 0 NMat=1 NMatS=1 NMatT=0.
 Full mass-weighted force constant matrix:
 Low frequencies ---   -0.0044    0.0059    0.0059  201.2134  201.2134 3072.4917
 Diagonal vibrational polarizability:
        0.1095531       0.0000000       0.0000000
 Diagonal vibrational hyperpolarizability:
       -5.3906482      -0.0000000      -0.0000000
 Harmonic frequencies (cm**-1), IR intensities (KM/Mole), Raman scattering
 activities (A**4/AMU), depolarization ratios for plane and unpolarized
 incident light, reduced masses (AMU), force constants (mDyne/A),
 and normal coordinates:
                           1
                           A
       Frequencies ---  3072.4917
    Reduced masses ---     1.0360
   Force constants ---     5.7623
    IR Intensities ---    38.4302
  Raman Activities ---    88.1405
    Depol. (Plane) ---     0.3878
    Depol. (Unpol) ---     0.5589
 Coord Atom Element:
   1     1    17         -0.02881
   2     1    17         -0.00000
   3     1    17         -0.00000
   1     2     1          0.99958
   2     2     1         -0.00000
   3     2     1         -0.00000
 Harmonic frequencies (cm**-1), IR intensities (KM/Mole), Raman scattering
 activities (A**4/AMU), depolarization ratios for plane and unpolarized
 incident light, reduced masses (AMU), force constants (mDyne/A),
 and normal coordinates:
                      1
                      A
 Frequencies --   3072.4917
 Red. masses --      1.0360
 Frc consts  --      5.7623
 IR Inten    --     38.4302
 Raman Activ --     88.1405
 Depolar (P) --      0.3878
 Depolar (U) --      0.5589
  Atom  AN      X      Y      Z
     1  17    -0.03  -0.00  -0.00
     2   1     1.00  -0.00  -0.00

 -------------------
 - Thermochemistry -
 -------------------
 Temperature   298.150 Kelvin.  Pressure   1.00000 Atm.
 Atom     1 has atomic number 17 and mass  34.96885
 Atom     2 has atomic number  1 and mass   1.00783
 Molecular mass:    35.97668 amu.
 Principal axes and moments of inertia in atomic units:
                           1         2         3
     Eigenvalues --     0.00000   5.71775   5.71775
           X            1.00000  -0.00000   0.00000
           Y            0.00000   1.00000   0.00000
           Z            0.00000   0.00000   1.00000
 This molecule is a prolate symmetric top.
 Rotational symmetry number  1.
 Rotational temperature (Kelvin)     15.14824
 Rotational constant (GHZ):         315.638184
 Zero-point vibrational energy      18377.6 (Joules/Mol)
                                    4.39235 (Kcal/Mol)
 Vibrational temperatures:   4420.63
          (Kelvin)
 
 Zero-point correction=                           0.007000 (Hartree/Particle)
 Thermal correction to Energy=                    0.009360
 Thermal correction to Enthalpy=                  0.010304
 Thermal correction to Gibbs Free Energy=        -0.010877
 Sum of electronic and zero-point Energies=           -460.793352
 Sum of electronic and thermal Energies=              -460.790992
 Sum of electronic and thermal Enthalpies=            -460.790047
 Sum of electronic and thermal Free Energies=         -460.811229
 
                     E (Thermal)             CV                S
                      KCal/Mol        Cal/Mol-Kelvin    Cal/Mol-Kelvin
 Total                    5.874              4.968             44.579
 Electronic               0.000              0.000              0.000
 Translational            0.889              2.981             36.671
 Rotational               0.592              1.987              7.909
 Vibrational              4.392              0.000              0.000
                       Q            Log10(Q)             Ln(Q)
 Total Bot       0.100680D+06          5.002945         11.519707
 Total V=0       0.166939D+09          8.222558         18.933140
 Vib (Bot)       0.603097D-03         -3.219613         -7.413433
 Vib (V=0)       0.100000D+01          0.000000          0.000000
 Electronic      0.100000D+01          0.000000          0.000000
 Translational   0.848175D+07          6.928485         15.953427
 Rotational      0.196821D+02          1.294073          2.979712
 -------------------------------------------------------------------
 Center     Atomic                   Forces (Hartrees/Bohr)
 Number     Number              X              Y              Z
 -------------------------------------------------------------------
      1       17           0.000000049   -0.000000000   -0.000000000
      2        1          -0.000000049    0.000000000    0.000000000
 -------------------------------------------------------------------
 Cartesian Forces:  Max     0.000000049 RMS     0.000000029
 FormGI is forming the generalized inverse of G from B-inverse, IUseBI=4.

 GradGradGradGradGradGradGradGradGradGradGradGradGradGradGradGradGradGrad
 Berny optimization.
 Internal  Forces:  Max     0.000000049 RMS     0.000000049
 Search for a local minimum.
 Step number   1 out of a maximum of    2
 All quantities printed in internal units (Hartrees-Bohrs-Radians)
 Second derivative matrix not updated -- analytic derivatives used.
 The second derivative matrix:
                          R1
           R1           0.34996
 ITU=  0
     Eigenvalues ---    0.34996
 Angle between quadratic step and forces=  90.00 degrees.
 Linear search not attempted -- first point.
 Iteration  1 RMS(Cart)=  0.00000010 RMS(Int)=  0.00000000
 Variable       Old X    -DE/DX   Delta X   Delta X   Delta X     New X
                                 (Linear)    (Quad)   (Total)
    R1        2.41596   0.00000   0.00000   0.00000   0.00000   2.41596
         Item               Value     Threshold  Converged?
 Maximum Force            0.000000     0.000015     YES
 RMS     Force            0.000000     0.000010     YES
 Maximum Displacement     0.000000     0.000060     YES
 RMS     Displacement     0.000000     0.000040     YES
 Predicted change in Energy=-3.490081D-15
 Optimization completed.
    -- Stationary point found.
                           ----------------------------
                           !   Optimized Parameters   !
                           ! (Angstroms and Degrees)  !
 --------------------------                            --------------------------
 ! Name  Definition              Value          Derivative Info.                !
 --------------------------------------------------------------------------------
 ! R1    R(1,2)                  1.2785         -DE/DX =    0.0                 !
 --------------------------------------------------------------------------------
 GradGradGradGradGradGradGradGradGradGradGradGradGradGradGradGradGradGrad


 ----------------------------------------------------------------------

 Electric dipole moment (input orientation):
 (Debye = 10**-18 statcoulomb cm , SI units = C m)
                  (au)            (Debye)         (10**-30 SI)
   Tot        0.495416D+00      0.125922D+01      0.420032D+01
   x         -0.495416D+00     -0.125922D+01     -0.420032D+01
   y          0.000000D+00      0.000000D+00      0.000000D+00
   z          0.000000D+00      0.000000D+00      0.000000D+00

 Dipole polarizability, Alpha (input orientation).
 (esu units = cm**3 , SI units = C**2 m**2 J**-1)
 Alpha(0;0):
               (au)            (10**-24 esu)      (10**-40 SI)
   iso        0.116918D+02      0.173255D+01      0.192772D+01
   aniso      0.480014D+01      0.711307D+00      0.791436D+00
   xx         0.148919D+02      0.220676D+01      0.245535D+01
   yx         0.000000D+00      0.000000D+00      0.000000D+00
   yy         0.100918D+02      0.149545D+01      0.166391D+01
   zx         0.000000D+00      0.000000D+00      0.000000D+00
   zy         0.000000D+00      0.000000D+00      0.000000D+00
   zz         0.100918D+02      0.149545D+01      0.166391D+01

 First dipole hyperpolarizability, Beta (input orientation).
 ||, _|_  parallel and perpendicular components, (z) with respect to z axis,
 vector components x,y,z.  Values do not include the 1/n! factor of 1/2.
 (esu units = statvolt**-1 cm**4 , SI units = C**3 m**3 J**-2)
 Beta(0;0,0):
               (au)            (10**-30 esu)      (10**-50 SI)
   || (z)     0.000000D+00      0.000000D+00      0.000000D+00
   _|_(z)     0.000000D+00      0.000000D+00      0.000000D+00
   x         -0.795795D+02     -0.687505D+00     -0.255161D+00
   y          0.000000D+00      0.000000D+00      0.000000D+00
   z          0.000000D+00      0.000000D+00      0.000000D+00
   ||         0.159159D+02      0.137501D+00      0.510321D-01
   xxx       -0.247778D+02     -0.214061D+00     -0.794465D-01
   xxy        0.000000D+00      0.000000D+00      0.000000D+00
   yxy       -0.874358D+00     -0.755377D-02     -0.280351D-02
   yyy        0.000000D+00      0.000000D+00      0.000000D+00
   xxz        0.000000D+00      0.000000D+00      0.000000D+00
   yxz        0.000000D+00      0.000000D+00      0.000000D+00
   yyz        0.000000D+00      0.000000D+00      0.000000D+00
   zxz       -0.874358D+00     -0.755377D-02     -0.280351D-02
   zyz        0.000000D+00      0.000000D+00      0.000000D+00
   zzz        0.000000D+00      0.000000D+00      0.000000D+00

 ----------------------------------------------------------------------

 Dipole orientation:
    17         -0.00000000          0.00000000         -0.07414495
     1          0.00000000         -0.00000000          2.34181630

 Electric dipole moment (dipole orientation):
 (Debye = 10**-18 statcoulomb cm , SI units = C m)
                  (au)            (Debye)         (10**-30 SI)
   Tot        0.495416D+00      0.125922D+01      0.420032D+01
   x          0.000000D+00      0.000000D+00      0.000000D+00
   y          0.000000D+00      0.000000D+00      0.000000D+00
   z          0.495416D+00      0.125922D+01      0.420032D+01

 Dipole polarizability, Alpha (dipole orientation).
 (esu units = cm**3 , SI units = C**2 m**2 J**-1)
 Alpha(0;0):
               (au)            (10**-24 esu)      (10**-40 SI)
   iso        0.116918D+02      0.173255D+01      0.192772D+01
   aniso      0.480014D+01      0.711307D+00      0.791436D+00
   xx         0.100918D+02      0.149545D+01      0.166391D+01
   yx         0.000000D+00      0.000000D+00      0.000000D+00
   yy         0.100918D+02      0.149545D+01      0.166391D+01
   zx         0.000000D+00      0.000000D+00      0.000000D+00
   zy         0.000000D+00      0.000000D+00      0.000000D+00
   zz         0.148919D+02      0.220676D+01      0.245535D+01

 First dipole hyperpolarizability, Beta (dipole orientation).
 ||, _|_  parallel and perpendicular components, (z) with respect to z axis,
 vector components x,y,z.  Values do not include the 1/n! factor of 1/2.
 (esu units = statvolt**-1 cm**4 , SI units = C**3 m**3 J**-2)
 Beta(0;0,0):
               (au)            (10**-30 esu)      (10**-50 SI)
   || (z)     0.159159D+02      0.137501D+00      0.510321D-01
   _|_(z)     0.530530D+01      0.458336D-01      0.170107D-01
   x          0.000000D+00      0.000000D+00      0.000000D+00
   y          0.000000D+00      0.000000D+00      0.000000D+00
   z          0.795795D+02      0.687505D+00      0.255161D+00
   ||         0.159159D+02      0.137501D+00      0.510321D-01
   xxx        0.000000D+00      0.000000D+00      0.000000D+00
   xxy        0.000000D+00      0.000000D+00      0.000000D+00
   yxy        0.000000D+00      0.000000D+00      0.000000D+00
   yyy        0.000000D+00      0.000000D+00      0.000000D+00
   xxz        0.874358D+00      0.755377D-02      0.280351D-02
   yxz        0.000000D+00      0.000000D+00      0.000000D+00
   yyz        0.874358D+00      0.755377D-02      0.280351D-02
   zxz        0.000000D+00      0.000000D+00      0.000000D+00
   zyz        0.000000D+00      0.000000D+00      0.000000D+00
   zzz        0.247778D+02      0.214061D+00      0.794465D-01

 ----------------------------------------------------------------------

 Test job not archived.
 1\1\GINC-NODE7\Freq\RM08HX\def2TZVP\Cl1H1\SD\23-Dec-2025\0\\#N Geom=Al
 lCheck Guess=TCheck SCRF=Check Test GenChk RM08HX/def2TZVP Freq\\HCl M
 08HX_def2tzvp\\0,1\Cl,0.0392358169,0.,0.\H,-1.2392358169,0.,0.\\Versio
 n=ES64L-G16RevA.03\HF=-460.8003518\RMSD=4.427e-10\RMSF=2.854e-08\ZeroP
 oint=0.0069997\Thermal=0.0093601\Dipole=-0.4954164,0.,0.\DipoleDeriv=-
 0.1965096,0.,0.,0.,-0.201947,0.,0.,0.,-0.201947,0.1965096,0.,0.,0.,0.2
 01947,0.,0.,0.,0.201947\Polar=14.8919245,0.,10.0917884,0.,0.,10.091788
 4\PolarDeriv=9.6694074,0.,-0.4576301,0.,0.,-0.4576301,0.,2.0203338,0.,
 0.,0.,0.,0.,0.,0.,2.0203338,0.,0.,-9.6694074,0.,0.4576301,0.,0.,0.4576
 301,0.,-2.0203338,0.,0.,0.,0.,0.,0.,0.,-2.0203338,0.,0.\HyperPolar=-24
 .777775,0.,-0.874358,0.,0.,0.,0.,-0.874358,0.,0.\Quadrupole=1.8485957,
 -0.9242978,-0.9242978,0.,0.,0.\PG=C*V [C*(H1Cl1)]\NImag=0\\0.34995995,
 0.,0.00150090,0.,0.,0.00150090,-0.34995995,0.,0.,0.34995995,0.,-0.0015
 0090,0.,0.,0.00150090,0.,0.,-0.00150090,0.,0.,0.00150090\\-0.00000005,
 0.,0.,0.00000005,0.,0.\\\@


 FIREWORKS ENDED
 AND SPECTATORS GONE AWAY....
 AH, HOW VAST AND DARK
                     SHIKI
 Job cpu time:       0 days  0 hours  2 minutes  2.1 seconds.
 Elapsed time:       0 days  0 hours  0 minutes  5.6 seconds.
 File lengths (MBytes):  RWF=      6 Int=      0 D2E=      0 Chk=      2 Scr=      1
 Normal termination of Gaussian 16 at Tue Dec 23 16:28:17 2025.
