 Entering Gaussian System, Link 0=/opt/gaussian/g16.a03/g16/g16
 Input=H3SiOH_B3LYP_6-311g.gjf
 Output=Job.24047.log
 Initial command:
 /opt/gaussian/g16.a03/g16/l1.exe "/scr0//sd/24047/Gau-4818.inp" -scrdir="/scr0//sd/24047/"
 Default is to use a total of  24 processors:
                               24 via shared-memory
                                1 via Linda
 Entering Link 1 = /opt/gaussian/g16.a03/g16/l1.exe PID=      4819.
  
 Copyright (c) 1988,1990,1992,1993,1995,1998,2003,2009,2016,
            Gaussian, Inc.  All Rights Reserved.
  
 This is part of the Gaussian(R) 16 program.  It is based on
 the Gaussian(R) 09 system (copyright 2009, Gaussian, Inc.),
 the Gaussian(R) 03 system (copyright 2003, Gaussian, Inc.),
 the Gaussian(R) 98 system (copyright 1998, Gaussian, Inc.),
 the Gaussian(R) 94 system (copyright 1995, Gaussian, Inc.),
 the Gaussian 92(TM) system (copyright 1992, Gaussian, Inc.),
 the Gaussian 90(TM) system (copyright 1990, Gaussian, Inc.),
 the Gaussian 88(TM) system (copyright 1988, Gaussian, Inc.),
 the Gaussian 86(TM) system (copyright 1986, Carnegie Mellon
 University), and the Gaussian 82(TM) system (copyright 1983,
 Carnegie Mellon University). Gaussian is a federally registered
 trademark of Gaussian, Inc.
  
 This software contains proprietary and confidential information,
 including trade secrets, belonging to Gaussian, Inc.
  
 This software is provided under written license and may be
 used, copied, transmitted, or stored only in accord with that
 written license.
  
 The following legend is applicable only to US Government
 contracts under FAR:
  
                    RESTRICTED RIGHTS LEGEND
  
 Use, reproduction and disclosure by the US Government is
 subject to restrictions as set forth in subparagraphs (a)
 and (c) of the Commercial Computer Software - Restricted
 Rights clause in FAR 52.227-19.
  
 Gaussian, Inc.
 340 Quinnipiac St., Bldg. 40, Wallingford CT 06492
  
  
 ---------------------------------------------------------------
 Warning -- This program may not be used in any manner that
 competes with the business of Gaussian, Inc. or will provide
 assistance to any competitor of Gaussian, Inc.  The licensee
 of this program is prohibited from giving any competitor of
 Gaussian, Inc. access to this program.  By using this program,
 the user acknowledges that Gaussian, Inc. is engaged in the
 business of creating and licensing software in the field of
 computational chemistry and represents and warrants to the
 licensee that it is not a competitor of Gaussian, Inc. and that
 it will not use this program in any manner prohibited above.
 ---------------------------------------------------------------
  

 Cite this work as:
 Gaussian 16, Revision A.03,
 M. J. Frisch, G. W. Trucks, H. B. Schlegel, G. E. Scuseria, 
 M. A. Robb, J. R. Cheeseman, G. Scalmani, V. Barone, 
 G. A. Petersson, H. Nakatsuji, X. Li, M. Caricato, A. V. Marenich, 
 J. Bloino, B. G. Janesko, R. Gomperts, B. Mennucci, H. P. Hratchian, 
 J. V. Ortiz, A. F. Izmaylov, J. L. Sonnenberg, D. Williams-Young, 
 F. Ding, F. Lipparini, F. Egidi, J. Goings, B. Peng, A. Petrone, 
 T. Henderson, D. Ranasinghe, V. G. Zakrzewski, J. Gao, N. Rega, 
 G. Zheng, W. Liang, M. Hada, M. Ehara, K. Toyota, R. Fukuda, 
 J. Hasegawa, M. Ishida, T. Nakajima, Y. Honda, O. Kitao, H. Nakai, 
 T. Vreven, K. Throssell, J. A. Montgomery, Jr., J. E. Peralta, 
 F. Ogliaro, M. J. Bearpark, J. J. Heyd, E. N. Brothers, K. N. Kudin, 
 V. N. Staroverov, T. A. Keith, R. Kobayashi, J. Normand, 
 K. Raghavachari, A. P. Rendell, J. C. Burant, S. S. Iyengar, 
 J. Tomasi, M. Cossi, J. M. Millam, M. Klene, C. Adamo, R. Cammi, 
 J. W. Ochterski, R. L. Martin, K. Morokuma, O. Farkas, 
 J. B. Foresman, and D. J. Fox, Gaussian, Inc., Wallingford CT, 2016.
 
 ******************************************
 Gaussian 16:  ES64L-G16RevA.03 25-Dec-2016
                23-Dec-2025 
 ******************************************
 %NProcLinda=1
 Will use up to    1 processors via Linda.
 %NProcShared=24
 Will use up to   24 processors via shared memory.
 %mem=50GB
 %chk=H3SiOH_B3LYP_6-311g.chk
 Default route: MaxDisk=1200GB
 ----------------------------------------------------------------------
 # B3LYP/6-311g(3d2f,3p2d) SCF=Tight opt=(tight,maxcycles=300) freq=(ra
 man,hpmodes) nosymm int=finegrid density pop=(full,bonding) iop(6/80=1
 )
 ----------------------------------------------------------------------
 1/6=300,7=10,18=20,19=15,26=3,38=1/1,3;
 2/9=110,12=2,15=1,17=6,18=5,40=1/2;
 3/5=4,6=6,7=707,11=2,25=1,30=1,71=1,74=-5,75=-4/1,2,3;
 4//1;
 5/5=2,32=2,38=5/2;
 6/7=3,22=-1,27=20,28=1,80=1/1;
 7/30=1/1,2,3,16;
 1/6=300,7=10,18=20,19=15,26=3/3(2);
 2/9=110,15=1/2;
 99//99;
 2/9=110,15=1/2;
 3/5=4,6=6,7=707,11=2,25=1,30=1,71=1,74=-5,75=-4/1,2,3;
 4/5=5,16=3,69=1/1;
 5/5=2,32=2,38=5/2;
 7/30=1/1,2,3,16;
 1/6=300,7=10,18=20,19=15,26=3/3(-5);
 2/9=110,15=1/2;
 6/7=3,19=2,22=-1,27=20,28=1,80=1/1;
 99/9=1/99;
 -------------------
 H3SiOH B3LYP_6-311g
 -------------------
 Symbolic Z-matrix:
 Charge =  0 Multiplicity = 1
 Si                    0.46877   0.0134    0. 
 O                    -1.18936  -0.13757   0. 
 H                     0.97201   0.73809   1.20158 
 H                     1.00255  -1.36735   0. 
 H                     0.97201   0.73809  -1.20158 
 H                    -1.69954   0.6795    0. 
 

 GradGradGradGradGradGradGradGradGradGradGradGradGradGradGradGradGradGrad
 Berny optimization.
 Initialization pass.
                           ----------------------------
                           !    Initial Parameters    !
                           ! (Angstroms and Degrees)  !
 --------------------------                            --------------------------
 ! Name  Definition              Value          Derivative Info.                !
 --------------------------------------------------------------------------------
 ! R1    R(1,2)                  1.665          estimate D2E/DX2                !
 ! R2    R(1,3)                  1.4907         estimate D2E/DX2                !
 ! R3    R(1,4)                  1.4803         estimate D2E/DX2                !
 ! R4    R(1,5)                  1.4907         estimate D2E/DX2                !
 ! R5    R(2,6)                  0.9633         estimate D2E/DX2                !
 ! A1    A(2,1,3)              112.3504         estimate D2E/DX2                !
 ! A2    A(2,1,4)              105.9339         estimate D2E/DX2                !
 ! A3    A(2,1,5)              112.3504         estimate D2E/DX2                !
 ! A4    A(3,1,4)              109.3726         estimate D2E/DX2                !
 ! A5    A(3,1,5)              107.4224         estimate D2E/DX2                !
 ! A6    A(4,1,5)              109.3726         estimate D2E/DX2                !
 ! A7    A(1,2,6)              116.7786         estimate D2E/DX2                !
 ! D1    D(3,1,2,6)             60.6353         estimate D2E/DX2                !
 ! D2    D(4,1,2,6)            180.0            estimate D2E/DX2                !
 ! D3    D(5,1,2,6)            -60.6353         estimate D2E/DX2                !
 --------------------------------------------------------------------------------
 Trust Radius=3.00D-01 FncErr=1.00D-07 GrdErr=1.00D-06 EigMax=2.50D+02 EigMin=1.00D-04
 Number of steps in this run=    100 maximum allowed number of steps=    100.
 GradGradGradGradGradGradGradGradGradGradGradGradGradGradGradGradGradGrad

                          Input orientation:                          
 ---------------------------------------------------------------------
 Center     Atomic      Atomic             Coordinates (Angstroms)
 Number     Number       Type             X           Y           Z
 ---------------------------------------------------------------------
      1         14           0        0.468773    0.013396    0.000000
      2          8           0       -1.189359   -0.137568    0.000000
      3          1           0        0.972013    0.738093    1.201584
      4          1           0        1.002554   -1.367347    0.000000
      5          1           0        0.972013    0.738093   -1.201584
      6          1           0       -1.699539    0.679502    0.000000
 ---------------------------------------------------------------------
                    Distance matrix (angstroms):
                    1          2          3          4          5
     1  Si   0.000000
     2  O    1.664990   0.000000
     3  H    1.490718   2.623379   0.000000
     4  H    1.480329   2.513332   2.424379   0.000000
     5  H    1.490718   2.623379   2.403168   2.424379   0.000000
     6  H    2.268320   0.963269   2.929919   3.389823   2.929919
                    6
     6  H    0.000000
 Symmetry turned off by external request.
 Stoichiometry    H4OSi
 Framework group  CS[SG(H2OSi),X(H2)]
 Deg. of freedom     8
 Full point group                 CS      NOp   2
 Rotational constants (GHZ):          77.0368402          13.6056055          13.3399137
 Standard basis: 6-311G(3d2f,3p2d) (5D, 7F)
    58 basis functions,    98 primitive gaussians,    58 cartesian basis functions
    13 alpha electrons       13 beta electrons
       nuclear repulsion energy        64.2874427248 Hartrees.
 NAtoms=    6 NActive=    6 NUniq=    6 SFac= 1.00D+00 NAtFMM=   60 NAOKFM=F Big=F
 Integral buffers will be    131072 words long.
 Raffenetti 2 integral format.
 Two-electron integral symmetry is turned off.
 One-electron integrals computed using PRISM.
 NBasis=    58 RedAO= T EigKep=  1.29D-02  NBF=    58
 NBsUse=    58 1.00D-06 EigRej= -1.00D+00 NBFU=    58
 ExpMin= 6.54D-02 ExpMax= 6.94D+04 ExpMxC= 2.33D+03 IAcc=2 IRadAn=         4 AccDes= 0.00D+00
 Harris functional with IExCor=  402 and IRadAn=       4 diagonalized for initial guess.
 HarFok:  IExCor=  402 AccDes= 0.00D+00 IRadAn=         4 IDoV= 1 UseB2=F ITyADJ=14
 ICtDFT=  3500011 ScaDFX=  1.000000  1.000000  1.000000  1.000000
 FoFCou: FMM=F IPFlag=           0 FMFlag=      100000 FMFlg1=           0
         NFxFlg=           0 DoJE=T BraDBF=F KetDBF=T FulRan=T
         wScrn=  0.000000 ICntrl=       500 IOpCl=  0 I1Cent=   200000004 NGrid=           0
         NMat0=    1 NMatS0=      1 NMatT0=    0 NMatD0=    1 NMtDS0=    0 NMtDT0=    0
 Symmetry not used in FoFCou.
 Keep R1 ints in memory in canonical form, NReq=22521086.
 Requested convergence on RMS density matrix=1.00D-08 within 128 cycles.
 Requested convergence on MAX density matrix=1.00D-06.
 Requested convergence on             energy=1.00D-06.
 No special actions if energy rises.
 Integral accuracy reduced to 1.0D-05 until final iterations.
 Initial convergence to 1.0D-05 achieved.  Increase integral accuracy.
 SCF Done:  E(RB3LYP) =  -367.158425637     A.U. after   10 cycles
            NFock= 10  Conv=0.81D-08     -V/T= 2.0018

 **********************************************************************

            Population analysis using the SCF density.

 **********************************************************************

 Alpha  occ. eigenvalues --  -66.13449 -19.11750  -5.30962  -3.66964  -3.66637
 Alpha  occ. eigenvalues --   -3.66631  -1.01123  -0.57747  -0.47807  -0.38421
 Alpha  occ. eigenvalues --   -0.38111  -0.32904  -0.30394
 Alpha virt. eigenvalues --   -0.00603   0.05562   0.06554   0.07680   0.07786
 Alpha virt. eigenvalues --    0.14045   0.14268   0.23771   0.28675   0.34876
 Alpha virt. eigenvalues --    0.36701   0.43141   0.45251   0.79884   0.80575
 Alpha virt. eigenvalues --    0.90761   0.95534   0.96403   0.96879   1.19411
 Alpha virt. eigenvalues --    1.24911   1.26648   1.27626   1.36373   1.45029
 Alpha virt. eigenvalues --    1.47375   1.55235   1.65095   1.67646   1.67804
 Alpha virt. eigenvalues --    1.77433   2.03381   2.35242   2.36833   2.40259
 Alpha virt. eigenvalues --    2.49242   4.79676   4.82353   5.12961   5.52695
 Alpha virt. eigenvalues --   11.28027  11.28049  11.29318  49.80102 140.94347
     Molecular Orbital Coefficients:
                           1         2         3         4         5
                           O         O         O         O         O
     Eigenvalues --   -66.13449 -19.11750  -5.30962  -3.66964  -3.66637
   1 1   Si 1S          0.41757   0.00000  -0.11701  -0.00070   0.00004
   2        2S          0.64678   0.00000  -0.30376  -0.00184   0.00012
   3        3S          0.01404   0.00001   0.53560   0.00365  -0.00023
   4        4S         -0.00492  -0.00011   0.57225   0.00301  -0.00021
   5        5S          0.00234   0.00004   0.05979  -0.00082   0.00011
   6        6S         -0.00165   0.00303  -0.03480   0.00274   0.00044
   7        7PX        -0.00005   0.00002  -0.00189   0.40346  -0.00782
   8        7PY         0.00000  -0.00000   0.00007   0.00781   0.40376
   9        7PZ         0.00000   0.00000   0.00000   0.00000   0.00000
  10        8PX         0.00000  -0.00004  -0.00402   0.68811  -0.01332
  11        8PY        -0.00000   0.00001   0.00015   0.01334   0.68834
  12        8PZ         0.00000   0.00000  -0.00000   0.00000   0.00000
  13        9PX         0.00002  -0.00006  -0.00052   0.06203  -0.00123
  14        9PY        -0.00000  -0.00006  -0.00001   0.00117   0.06091
  15        9PZ         0.00000  -0.00000   0.00000   0.00000   0.00000
  16       10PX        -0.00009  -0.00113  -0.00093  -0.01143   0.00005
  17       10PY         0.00001   0.00004   0.00026  -0.00030  -0.00968
  18       10PZ         0.00000   0.00000   0.00000  -0.00000  -0.00000
  19       11PX        -0.00011   0.00002  -0.00200   0.00379  -0.00020
  20       11PY        -0.00004  -0.00052  -0.00089  -0.00031   0.00299
  21       11PZ         0.00000   0.00000   0.00000  -0.00000   0.00000
  22 2   O  1S          0.00000   0.55130  -0.00011   0.00048   0.00003
  23        2S          0.00000   0.46986  -0.00012   0.00067   0.00005
  24        2PX         0.00002   0.00068   0.00016  -0.00078  -0.00007
  25        2PY         0.00000   0.00149  -0.00000  -0.00011   0.00010
  26        2PZ        -0.00000   0.00000  -0.00000  -0.00000   0.00000
  27        3S          0.00005   0.01268   0.00025  -0.00136  -0.00016
  28        3PX        -0.00005  -0.00015  -0.00005  -0.00096  -0.00001
  29        3PY        -0.00001   0.00004   0.00009  -0.00003   0.00009
  30        3PZ         0.00000  -0.00000   0.00000  -0.00000   0.00000
  31        4S         -0.00020  -0.00593  -0.00086  -0.00277   0.00007
  32        4PX        -0.00018  -0.00116  -0.00189  -0.00122  -0.00052
  33        4PY        -0.00010  -0.00024  -0.00111  -0.00038   0.00065
  34        4PZ        -0.00000   0.00000  -0.00000   0.00000   0.00000
  35 3   H  1S          0.00005   0.00008   0.00037   0.00016   0.00029
  36        2S         -0.00027  -0.00032  -0.00313   0.00064   0.00052
  37        3S          0.00043  -0.00034   0.00805  -0.00083  -0.00039
  38        4PX         0.00005   0.00016   0.00041   0.00021   0.00004
  39        4PY         0.00007   0.00006   0.00047   0.00000   0.00021
  40        4PZ         0.00012   0.00004   0.00078  -0.00005   0.00006
  41 4   H  1S          0.00004   0.00004   0.00031   0.00016  -0.00056
  42        2S         -0.00025  -0.00017  -0.00278   0.00062  -0.00122
  43        3S          0.00038  -0.00097   0.00708  -0.00126   0.00069
  44        4PX         0.00006   0.00015   0.00041   0.00022  -0.00003
  45        4PY        -0.00013  -0.00007  -0.00083   0.00002   0.00027
  46        4PZ        -0.00000  -0.00000   0.00000   0.00000   0.00000
  47 5   H  1S          0.00005   0.00008   0.00037   0.00016   0.00029
  48        2S         -0.00027  -0.00032  -0.00313   0.00064   0.00052
  49        3S          0.00043  -0.00034   0.00805  -0.00083  -0.00039
  50        4PX         0.00005   0.00016   0.00041   0.00021   0.00004
  51        4PY         0.00007   0.00006   0.00047   0.00000   0.00021
  52        4PZ        -0.00012  -0.00004  -0.00078   0.00005  -0.00006
  53 6   H  1S         -0.00001   0.00002   0.00007   0.00008  -0.00003
  54        2S          0.00010  -0.00015   0.00066  -0.00030  -0.00032
  55        3S          0.00006   0.00058   0.00163   0.00106  -0.00033
  56        4PX         0.00008  -0.00026   0.00071  -0.00013   0.00015
  57        4PY         0.00001   0.00075   0.00022  -0.00000   0.00010
  58        4PZ         0.00000   0.00000  -0.00000  -0.00000  -0.00000
                           6         7         8         9        10
                           O         O         O         O         O
     Eigenvalues --    -3.66631  -1.01123  -0.57747  -0.47807  -0.38421
   1 1   Si 1S         -0.00000   0.00675   0.02327  -0.01269  -0.00000
   2        2S         -0.00000   0.01839   0.06384  -0.03493  -0.00000
   3        3S          0.00000  -0.04058  -0.14529   0.08069   0.00000
   4        4S          0.00000  -0.06513  -0.23662   0.12765  -0.00000
   5        5S         -0.00000   0.12010   0.45826  -0.22937   0.00000
   6        6S         -0.00000  -0.06619   0.13642  -0.23090  -0.00000
   7        7PX         0.00000   0.02381   0.00978   0.04425  -0.00000
   8        7PY        -0.00000   0.00069   0.00681   0.02150   0.00000
   9        7PZ         0.40384  -0.00000  -0.00000   0.00000  -0.06709
  10        8PX         0.00000   0.04426   0.01936   0.07943  -0.00000
  11        8PY        -0.00000   0.00140   0.01239   0.03815   0.00000
  12        8PZ         0.68853  -0.00000  -0.00000   0.00000  -0.11749
  13        9PX         0.00000  -0.05674  -0.03494  -0.11417  -0.00000
  14        9PY        -0.00000  -0.00323  -0.01608  -0.04699  -0.00000
  15        9PZ         0.06076   0.00000   0.00000  -0.00000   0.15398
  16       10PX         0.00000   0.01507   0.00825  -0.06427   0.00000
  17       10PY         0.00000   0.00855  -0.01991  -0.08041  -0.00000
  18       10PZ        -0.00954   0.00000   0.00000   0.00000   0.23394
  19       11PX         0.00000  -0.00934  -0.00141  -0.03915  -0.00000
  20       11PY        -0.00000  -0.00380   0.00315  -0.03655  -0.00000
  21       11PZ         0.00278  -0.00000  -0.00000   0.00000   0.08898
  22 2   O  1S         -0.00000  -0.11632   0.00651  -0.02869  -0.00000
  23        2S         -0.00000  -0.18598   0.01040  -0.04649  -0.00000
  24        2PX         0.00000   0.01470   0.14821   0.11156  -0.00000
  25        2PY        -0.00000   0.04852  -0.08242  -0.13437  -0.00000
  26        2PZ         0.00010  -0.00000  -0.00000   0.00000   0.16182
  27        3S          0.00000   0.52911  -0.03781   0.12922   0.00000
  28        3PX         0.00000   0.03584   0.21695   0.16561  -0.00000
  29        3PY        -0.00000   0.07642  -0.11196  -0.18206  -0.00000
  30        3PZ         0.00016   0.00000  -0.00000   0.00000   0.23086
  31        4S          0.00000   0.44027   0.03807   0.27439   0.00000
  32        4PX         0.00000   0.06220   0.14877   0.15175   0.00000
  33        4PY        -0.00000   0.03997  -0.05655  -0.13479  -0.00000
  34        4PZ         0.00043  -0.00000   0.00000  -0.00000   0.23298
  35 3   H  1S          0.00046   0.00411   0.05235  -0.07876   0.10694
  36        2S          0.00097  -0.00201   0.08211  -0.13215   0.19517
  37        3S         -0.00048   0.01970   0.02617  -0.01865   0.08988
  38        4PX         0.00002  -0.00098  -0.00451   0.00347  -0.00964
  39        4PY         0.00005   0.00027  -0.00522   0.00803  -0.01054
  40        4PZ         0.00023   0.00109  -0.00934   0.01308  -0.01512
  41 4   H  1S          0.00000   0.00390   0.06159  -0.04143   0.00000
  42        2S          0.00000   0.00258   0.08489  -0.08872   0.00000
  43        3S         -0.00000   0.01664   0.03630  -0.01778   0.00000
  44        4PX        -0.00000  -0.00127  -0.00507   0.00066  -0.00000
  45        4PY        -0.00000  -0.00036   0.00941  -0.01507   0.00000
  46        4PZ         0.00016   0.00000   0.00000  -0.00000   0.00281
  47 5   H  1S         -0.00046   0.00411   0.05235  -0.07876  -0.10694
  48        2S         -0.00097  -0.00201   0.08211  -0.13215  -0.19517
  49        3S          0.00048   0.01970   0.02617  -0.01865  -0.08988
  50        4PX        -0.00002  -0.00098  -0.00451   0.00347   0.00964
  51        4PY        -0.00005   0.00027  -0.00522   0.00803   0.01054
  52        4PZ         0.00023  -0.00109   0.00934  -0.01308  -0.01512
  53 6   H  1S         -0.00000   0.10255  -0.12001  -0.11609  -0.00000
  54        2S          0.00000   0.07918  -0.17413  -0.18067   0.00000
  55        3S          0.00000   0.01140  -0.04128  -0.04707  -0.00000
  56        4PX        -0.00000   0.01354  -0.01762  -0.02335  -0.00000
  57        4PY        -0.00000  -0.02411   0.02744   0.01672  -0.00000
  58        4PZ        -0.00006  -0.00000  -0.00000   0.00000   0.01671
                          11        12        13        14        15
                           O         O         O         V         V
     Eigenvalues --    -0.38111  -0.32904  -0.30394  -0.00603   0.05562
   1 1   Si 1S          0.00015   0.00190   0.00000  -0.00330   0.02125
   2        2S          0.00040   0.00525   0.00000  -0.00893   0.05884
   3        3S         -0.00099  -0.01229  -0.00000   0.01930  -0.13951
   4        4S         -0.00081  -0.01968   0.00000   0.04336  -0.23356
   5        5S         -0.00178   0.04459  -0.00000  -0.09918   0.40943
   6        6S          0.05560  -0.01694   0.00000   0.19075   2.26832
   7        7PX        -0.03939   0.02141  -0.00000  -0.04219  -0.02067
   8        7PY         0.05414   0.04627  -0.00000   0.00217  -0.00780
   9        7PZ         0.00000   0.00000   0.03048  -0.00000  -0.00000
  10        8PX        -0.06987   0.03778  -0.00000  -0.07325  -0.03198
  11        8PY         0.09449   0.08058  -0.00000   0.00449  -0.01289
  12        8PZ         0.00000   0.00000   0.05276  -0.00000  -0.00000
  13        9PX         0.09805  -0.05265   0.00000   0.08855   0.02064
  14        9PY        -0.12245  -0.11636   0.00000  -0.01030   0.01288
  15        9PZ        -0.00000  -0.00000  -0.08081   0.00000   0.00000
  16       10PX         0.08566  -0.04990  -0.00000   0.33338   0.25148
  17       10PY        -0.19476  -0.11649   0.00000   0.00903   0.08347
  18       10PZ        -0.00000   0.00000  -0.05443   0.00000   0.00000
  19       11PX         0.03212   0.00748   0.00000   0.89257   0.15076
  20       11PY        -0.09586   0.01749   0.00000  -0.33474   0.06147
  21       11PZ        -0.00000   0.00000   0.05746   0.00000   0.00000
  22 2   O  1S         -0.01765   0.02591  -0.00000  -0.03652   0.01012
  23        2S         -0.02884   0.04227  -0.00000  -0.05850   0.01637
  24        2PX        -0.14303   0.10201  -0.00000   0.03938  -0.06135
  25        2PY        -0.11712   0.17025  -0.00000   0.07187  -0.01660
  26        2PZ        -0.00000   0.00000   0.24556  -0.00000  -0.00000
  27        3S          0.09714  -0.13232   0.00000   0.14446  -0.04342
  28        3PX        -0.20360   0.14372  -0.00000   0.06158  -0.08173
  29        3PY        -0.17059   0.23627  -0.00000   0.11782  -0.02926
  30        3PZ        -0.00000   0.00000   0.34304  -0.00000  -0.00000
  31        4S          0.02849  -0.14729  -0.00000   0.76316  -0.20152
  32        4PX        -0.20387   0.15886  -0.00000   0.13644  -0.16031
  33        4PY        -0.19687   0.26970  -0.00000   0.18109  -0.02690
  34        4PZ        -0.00000   0.00000   0.39766  -0.00000  -0.00000
  35 3   H  1S         -0.02308  -0.07527  -0.09456   0.00819  -0.05590
  36        2S         -0.04209  -0.16137  -0.23194   0.00053  -0.01225
  37        3S         -0.01265  -0.12033  -0.18417  -0.12658  -1.19611
  38        4PX         0.00504   0.00407   0.00786   0.02162  -0.00269
  39        4PY        -0.00033   0.00532   0.01624  -0.00391  -0.00429
  40        4PZ         0.00275   0.01882   0.02293   0.00016  -0.00913
  41 4   H  1S          0.13375   0.11027  -0.00000  -0.01683  -0.04933
  42        2S          0.25306   0.25232  -0.00000  -0.03449  -0.00642
  43        3S          0.08060   0.17151  -0.00000  -0.54891  -1.02834
  44        4PX        -0.00873  -0.01099   0.00000   0.02212  -0.00234
  45        4PY         0.02541   0.02928  -0.00000  -0.00491   0.01178
  46        4PZ        -0.00000  -0.00000  -0.00440   0.00000   0.00000
  47 5   H  1S         -0.02308  -0.07527   0.09456   0.00819  -0.05590
  48        2S         -0.04209  -0.16137   0.23194   0.00053  -0.01225
  49        3S         -0.01265  -0.12033   0.18417  -0.12658  -1.19611
  50        4PX         0.00504   0.00407  -0.00786   0.02162  -0.00269
  51        4PY        -0.00033   0.00532  -0.01624  -0.00391  -0.00429
  52        4PZ        -0.00275  -0.01882   0.02293  -0.00016   0.00913
  53 6   H  1S          0.00432   0.05203  -0.00000  -0.03166   0.00567
  54        2S          0.04436   0.05729  -0.00000  -0.13731   0.03289
  55        3S          0.02611   0.02533   0.00000  -0.24482  -0.11730
  56        4PX        -0.00850   0.01724  -0.00000  -0.00075  -0.00675
  57        4PY        -0.02413   0.01102  -0.00000  -0.00339  -0.00694
  58        4PZ        -0.00000   0.00000   0.02503  -0.00000  -0.00000
                          16        17        18        19        20
                           V         V         V         V         V
     Eigenvalues --     0.06554   0.07680   0.07786   0.14045   0.14268
   1 1   Si 1S         -0.00250   0.00000   0.00046   0.00000  -0.00050
   2        2S         -0.00676   0.00000   0.00135   0.00000  -0.00138
   3        3S          0.01465  -0.00000  -0.00399  -0.00000   0.00318
   4        4S          0.03353   0.00000  -0.00137  -0.00000   0.00628
   5        5S         -0.11484  -0.00000  -0.00720   0.00000  -0.03659
   6        6S          0.05127  -0.00000   0.00081  -0.00000  -0.03772
   7        7PX        -0.01105  -0.00000  -0.01425  -0.00000   0.00744
   8        7PY        -0.03576   0.00000   0.02736   0.00000  -0.07308
   9        7PZ        -0.00000  -0.04254   0.00000  -0.07619  -0.00000
  10        8PX        -0.01914  -0.00000  -0.02395  -0.00000   0.01150
  11        8PY        -0.06139   0.00000   0.04476   0.00000  -0.11399
  12        8PZ        -0.00000  -0.07310   0.00000  -0.11881  -0.00000
  13        9PX         0.02268   0.00000   0.01753   0.00000  -0.00867
  14        9PY         0.06447  -0.00000  -0.03625  -0.00000   0.06853
  15        9PZ         0.00000   0.08455  -0.00000   0.07280   0.00000
  16       10PX         0.10382   0.00000   0.25445   0.00000  -0.09088
  17       10PY         0.36335  -0.00000  -0.33019  -0.00000   1.09846
  18       10PZ         0.00000   0.39771  -0.00000   1.13087   0.00000
  19       11PX         0.28610   0.00000   0.91061  -0.00000   0.36362
  20       11PY         1.71162  -0.00000  -0.41881   0.00000  -1.08392
  21       11PZ         0.00000   1.68500  -0.00000  -0.93322  -0.00000
  22 2   O  1S         -0.01341   0.00000   0.01872  -0.00000   0.00658
  23        2S         -0.02149   0.00000   0.03073  -0.00000   0.01083
  24        2PX         0.01533   0.00000   0.10314  -0.00000   0.01423
  25        2PY        -0.07624  -0.00000  -0.06998   0.00000  -0.01999
  26        2PZ        -0.00000  -0.10202   0.00000  -0.00628  -0.00000
  27        3S          0.05414  -0.00000  -0.09698   0.00000  -0.03693
  28        3PX         0.01944   0.00000   0.12159  -0.00000   0.01176
  29        3PY        -0.08196  -0.00000  -0.09196   0.00000  -0.02851
  30        3PZ        -0.00000  -0.12491   0.00000  -0.01051  -0.00000
  31        4S          0.24418  -0.00000  -0.28252   0.00000  -0.08492
  32        4PX         0.09041   0.00000   0.40225  -0.00000   0.04489
  33        4PY        -0.25197  -0.00000  -0.20937   0.00000  -0.00953
  34        4PZ        -0.00000  -0.28161   0.00000  -0.01273  -0.00000
  35 3   H  1S         -0.03975  -0.06750  -0.01437   0.00422  -0.00822
  36        2S         -0.13860  -0.16829  -0.06256   0.09873  -0.02194
  37        3S         -0.79278  -1.31136   0.04730  -0.48446  -0.19389
  38        4PX         0.01130   0.00265   0.01209  -0.00341   0.00021
  39        4PY         0.03179  -0.00345  -0.00816  -0.00509   0.00066
  40        4PZ         0.00009   0.02829   0.00140  -0.00547  -0.00137
  41 4   H  1S          0.07111  -0.00000  -0.05366   0.00000  -0.01549
  42        2S          0.14992  -0.00000  -0.19282   0.00000  -0.13799
  43        3S          1.44848  -0.00000  -0.77050  -0.00000   0.39558
  44        4PX         0.00278   0.00000   0.01417  -0.00000   0.00914
  45        4PY         0.02738  -0.00000  -0.01396   0.00000  -0.00829
  46        4PZ         0.00000   0.03484  -0.00000   0.00313   0.00000
  47 5   H  1S         -0.03975   0.06750  -0.01437  -0.00422  -0.00822
  48        2S         -0.13860   0.16829  -0.06256  -0.09873  -0.02194
  49        3S         -0.79278   1.31136   0.04730   0.48446  -0.19389
  50        4PX         0.01130  -0.00265   0.01209   0.00341   0.00021
  51        4PY         0.03179   0.00345  -0.00816   0.00509   0.00066
  52        4PZ        -0.00009   0.02829  -0.00140  -0.00547   0.00137
  53 6   H  1S         -0.02958   0.00000   0.06993   0.00000  -0.00574
  54        2S         -0.00365   0.00000   0.07254   0.00000  -0.14166
  55        3S          0.05403   0.00000   1.58989  -0.00000   0.62165
  56        4PX         0.00292  -0.00000  -0.02294   0.00000  -0.00589
  57        4PY         0.01157   0.00000   0.01582  -0.00000   0.01297
  58        4PZ        -0.00000  -0.00832   0.00000  -0.01271  -0.00000
                          21        22        23        24        25
                           V         V         V         V         V
     Eigenvalues --     0.23771   0.28675   0.34876   0.36701   0.43141
   1 1   Si 1S          0.00845  -0.00013  -0.00043  -0.00000  -0.01864
   2        2S          0.02353   0.00039  -0.00076  -0.00000  -0.04959
   3        3S         -0.05731  -0.00814  -0.00236   0.00000   0.09890
   4        4S         -0.09154   0.03449   0.02426   0.00000   0.31350
   5        5S         -0.08340  -0.54986  -0.36158  -0.00000  -1.76133
   6        6S          1.82420   0.62676   0.69206   0.00000   3.31874
   7        7PX         0.07468  -0.04532  -0.01439  -0.00000  -0.00508
   8        7PY         0.00590  -0.00602   0.03279  -0.00000  -0.02826
   9        7PZ        -0.00000   0.00000  -0.00000  -0.05038   0.00000
  10        8PX         0.11397  -0.07131  -0.02616  -0.00000  -0.01249
  11        8PY         0.00908  -0.00999   0.05578  -0.00000  -0.04241
  12        8PZ        -0.00000   0.00000  -0.00000  -0.08126   0.00000
  13        9PX        -0.03082   0.01789   0.04714   0.00000   0.05786
  14        9PY        -0.00944  -0.00230  -0.03955  -0.00000  -0.02717
  15        9PZ        -0.00000  -0.00000   0.00000   0.01822  -0.00000
  16       10PX        -1.55634   0.99431   0.18441  -0.00000  -0.06799
  17       10PY        -0.09774   0.12399  -0.52095   0.00000   0.75734
  18       10PZ         0.00000  -0.00000   0.00000   0.99552  -0.00000
  19       11PX         1.40489  -0.92792  -0.49722   0.00000   0.23924
  20       11PY        -0.07812  -0.23746   1.54398  -0.00000  -0.94417
  21       11PZ        -0.00000   0.00000  -0.00000  -1.81562   0.00000
  22 2   O  1S          0.02152  -0.00121   0.00966  -0.00000   0.01432
  23        2S          0.03538  -0.00052   0.01631  -0.00000   0.02410
  24        2PX        -0.13303  -0.01177   0.01080   0.00000   0.07350
  25        2PY        -0.01567   0.04756  -0.02813   0.00000  -0.08655
  26        2PZ        -0.00000   0.00000  -0.00000  -0.02018   0.00000
  27        3S         -0.09498  -0.04396  -0.03731   0.00000  -0.06339
  28        3PX        -0.17700  -0.03397   0.01635   0.00000   0.11655
  29        3PY        -0.02703   0.07410  -0.05696   0.00000  -0.15354
  30        3PZ         0.00000   0.00000  -0.00000  -0.02995   0.00000
  31        4S         -0.55959   0.37756  -0.38060   0.00000  -0.67681
  32        4PX        -0.65231   0.07794   0.25980  -0.00000   0.27876
  33        4PY        -0.09123   0.29897  -0.45045   0.00000  -0.52673
  34        4PZ        -0.00000   0.00000  -0.00000  -0.01149  -0.00000
  35 3   H  1S         -0.05256  -0.08325   0.00474  -0.06662   0.01254
  36        2S         -0.29401  -0.87684   0.23699  -1.24841  -0.26253
  37        3S         -0.21074   0.78252  -0.86629   2.24982  -0.24075
  38        4PX        -0.01034   0.02261   0.00867   0.01387   0.02376
  39        4PY        -0.00038   0.01629  -0.02319   0.01908   0.04537
  40        4PZ         0.00297   0.01910  -0.01564   0.06899   0.01720
  41 4   H  1S         -0.04387  -0.05478  -0.09008   0.00000   0.06270
  42        2S         -0.12454  -0.41817  -1.30582   0.00000   0.96635
  43        3S         -0.65735   0.01945   2.27191  -0.00000  -2.27115
  44        4PX        -0.00980   0.02262  -0.00306   0.00000  -0.02168
  45        4PY         0.01036   0.00496  -0.06455   0.00000   0.02644
  46        4PZ         0.00000  -0.00000   0.00000   0.03741  -0.00000
  47 5   H  1S         -0.05256  -0.08325   0.00474   0.06662   0.01254
  48        2S         -0.29401  -0.87684   0.23699   1.24841  -0.26253
  49        3S         -0.21074   0.78252  -0.86629  -2.24982  -0.24075
  50        4PX        -0.01034   0.02261   0.00867  -0.01387   0.02376
  51        4PY        -0.00038   0.01629  -0.02319  -0.01908   0.04537
  52        4PZ        -0.00297  -0.01910   0.01564   0.06899  -0.01720
  53 6   H  1S          0.00355  -0.04951   0.09306  -0.00000   0.08049
  54        2S          0.06204  -0.48668   1.25389  -0.00000   1.38943
  55        3S          0.02892  -0.35885  -1.23266   0.00000  -0.81713
  56        4PX         0.01322   0.00244   0.04532  -0.00000   0.06467
  57        4PY        -0.01122   0.02341  -0.03472   0.00000   0.01250
  58        4PZ        -0.00000   0.00000  -0.00000  -0.01312   0.00000
                          26        27        28        29        30
                           V         V         V         V         V
     Eigenvalues --     0.45251   0.79884   0.80575   0.90761   0.95534
   1 1   Si 1S         -0.02392  -0.00073  -0.00000   0.00131   0.00159
   2        2S         -0.06364  -0.00163  -0.00000   0.00489   0.00469
   3        3S          0.12693  -0.00014   0.00000  -0.02457  -0.01413
   4        4S          0.40375   0.02969   0.00000   0.04403  -0.00741
   5        5S         -2.27275  -0.14770  -0.00000  -0.14456   0.09337
   6        6S          4.61293  -0.14611   0.00000  -1.01605  -0.68363
   7        7PX         0.00649  -0.00911  -0.00000   0.01326   0.08474
   8        7PY         0.02440  -0.00547   0.00000  -0.01695   0.12081
   9        7PZ         0.00000  -0.00000  -0.01297  -0.00000  -0.00000
  10        8PX         0.00908  -0.02564  -0.00000   0.00504   0.18001
  11        8PY         0.03882  -0.01677   0.00000  -0.03469   0.26398
  12        8PZ         0.00000   0.00000  -0.02890  -0.00000  -0.00000
  13        9PX         0.00780   0.10717   0.00000   0.09256  -0.80587
  14        9PY        -0.00584   0.14402  -0.00000   0.10692  -1.24021
  15        9PZ        -0.00000  -0.00000   0.15026   0.00000   0.00000
  16       10PX        -0.22618   0.16364   0.00000   0.40115   1.22475
  17       10PY        -0.56507  -0.53095  -0.00000   0.21490   1.59011
  18       10PZ        -0.00000   0.00000  -0.34698  -0.00000  -0.00000
  19       11PX         0.65144  -0.28029  -0.00000   0.10137  -0.46338
  20       11PY         0.70281  -0.07813  -0.00000  -0.51709  -0.54275
  21       11PZ         0.00000   0.00000  -0.46244  -0.00000   0.00000
  22 2   O  1S         -0.01071  -0.01206  -0.00000  -0.02988   0.03451
  23        2S         -0.01948  -0.01982  -0.00000  -0.05526   0.06671
  24        2PX        -0.01219  -0.04087  -0.00000  -0.22860  -0.08080
  25        2PY         0.07306  -0.23851  -0.00000   0.03373  -0.03440
  26        2PZ         0.00000   0.00000  -0.26031  -0.00000   0.00000
  27        3S          0.09330   0.01849  -0.00000   0.36342  -0.47050
  28        3PX        -0.01584  -0.17812  -0.00000  -0.75407  -0.16057
  29        3PY         0.11778  -0.70997  -0.00000   0.03457  -0.04520
  30        3PZ         0.00000   0.00000  -0.80854  -0.00000   0.00000
  31        4S         -0.11513   0.68167   0.00000  -0.71013   1.01009
  32        4PX        -0.41548   0.00153  -0.00000   1.84841   0.42111
  33        4PY         0.41710   1.66152   0.00000  -0.60059   0.12465
  34        4PZ        -0.00000  -0.00000   1.24912   0.00000  -0.00000
  35 3   H  1S          0.05223  -0.01036  -0.01229  -0.00166   0.03466
  36        2S          0.55272   0.10406   0.07214   0.00994  -0.10814
  37        3S         -1.91233   0.11247   0.32050   0.33461   0.11369
  38        4PX        -0.01002  -0.04079  -0.05148   0.04203   0.13677
  39        4PY        -0.01905  -0.10155   0.05050   0.01638   0.19109
  40        4PZ         0.02260   0.06646  -0.03112  -0.02092   0.11698
  41 4   H  1S          0.01552   0.00968  -0.00000   0.00811  -0.03814
  42        2S         -0.32287  -0.25613  -0.00000   0.33194   0.16959
  43        3S         -0.50144   0.14122   0.00000  -0.45333   0.19865
  44        4PX         0.02880   0.11256   0.00000  -0.06853   0.00184
  45        4PY        -0.04640  -0.00621   0.00000  -0.03907   0.22599
  46        4PZ        -0.00000   0.00000  -0.11811   0.00000  -0.00000
  47 5   H  1S          0.05223  -0.01036   0.01229  -0.00166   0.03466
  48        2S          0.55272   0.10406  -0.07214   0.00994  -0.10814
  49        3S         -1.91233   0.11247  -0.32050   0.33461   0.11369
  50        4PX        -0.01002  -0.04079   0.05148   0.04203   0.13677
  51        4PY        -0.01905  -0.10155  -0.05050   0.01638   0.19109
  52        4PZ        -0.02260  -0.06646  -0.03112   0.02092  -0.11698
  53 6   H  1S         -0.07787  -0.02090  -0.00000  -0.03218  -0.00775
  54        2S         -1.11448  -0.78785  -0.00000   0.61347  -0.11047
  55        3S          0.46374  -0.27316  -0.00000   0.92365  -0.14211
  56        4PX         0.02168  -0.09740  -0.00000   0.19124  -0.03733
  57        4PY         0.02617   0.17387   0.00000  -0.15435   0.06385
  58        4PZ         0.00000  -0.00000   0.02950  -0.00000   0.00000
                          31        32        33        34        35
                           V         V         V         V         V
     Eigenvalues --     0.96403   0.96879   1.19411   1.24911   1.26648
   1 1   Si 1S          0.00019   0.00000   0.00234   0.00000  -0.00000
   2        2S          0.00060   0.00000   0.00754   0.00000  -0.00000
   3        3S         -0.00229  -0.00000  -0.02858  -0.00000   0.00000
   4        4S          0.00360  -0.00000   0.01050  -0.00000   0.00000
   5        5S         -0.06875   0.00000   0.27497   0.00000  -0.00000
   6        6S         -0.18228  -0.00000  -1.31252  -0.00000   0.00000
   7        7PX         0.12647   0.00000  -0.06528  -0.00000   0.00000
   8        7PY        -0.08326   0.00000  -0.01361   0.00000  -0.00000
   9        7PZ        -0.00000   0.14808   0.00000  -0.00182  -0.00142
  10        8PX         0.27682   0.00000  -0.16822  -0.00000  -0.00000
  11        8PY        -0.18490   0.00000  -0.03288   0.00000  -0.00000
  12        8PZ        -0.00000   0.32601   0.00000  -0.00333  -0.00319
  13        9PX        -1.27091  -0.00000   0.86528  -0.00000   0.00000
  14        9PY         0.89660  -0.00000   0.18820  -0.00000   0.00000
  15        9PZ         0.00000  -1.54731  -0.00000   0.01437   0.01510
  16       10PX         1.74214   0.00000  -0.68584   0.00000   0.00000
  17       10PY        -1.21744   0.00000  -0.30208   0.00000  -0.00000
  18       10PZ        -0.00000   1.97008   0.00000  -0.01399  -0.01426
  19       11PX        -0.77839  -0.00000   0.40436  -0.00000   0.00000
  20       11PY         0.71941  -0.00000   0.28693  -0.00000   0.00000
  21       11PZ        -0.00000  -0.79151  -0.00000  -0.07851  -0.00332
  22 2   O  1S          0.03746   0.00000   0.09082   0.00000   0.00000
  23        2S          0.07104   0.00000   0.18145   0.00000   0.00000
  24        2PX        -0.05957  -0.00000  -0.02862  -0.00000  -0.00000
  25        2PY         0.00199  -0.00000   0.00654   0.00000   0.00000
  26        2PZ        -0.00000  -0.03675   0.00000  -0.04213  -0.00103
  27        3S         -0.48714  -0.00000  -1.37851  -0.00000   0.00000
  28        3PX        -0.07120  -0.00000  -0.21065  -0.00000  -0.00000
  29        3PY         0.05568  -0.00000   0.11507   0.00000   0.00000
  30        3PZ        -0.00000  -0.09310   0.00000  -0.08839  -0.00214
  31        4S          1.14229   0.00000   2.13150   0.00000  -0.00000
  32        4PX         0.22482   0.00000   0.11299   0.00000   0.00000
  33        4PY         0.29374   0.00000   0.19191  -0.00000  -0.00000
  34        4PZ         0.00000   0.03351   0.00000   0.08398   0.00257
  35 3   H  1S         -0.00717   0.04540   0.03342   0.00102   0.00072
  36        2S          0.03978  -0.20823   0.17096  -0.00225  -0.00064
  37        3S         -0.03893   0.02215   0.10725   0.05297   0.00708
  38        4PX         0.08230   0.07515   0.15039   0.61839   0.01052
  39        4PY        -0.06253   0.10593  -0.07122  -0.22793   0.49016
  40        4PZ         0.00280   0.30643  -0.02377  -0.11903  -0.29308
  41 4   H  1S          0.03039  -0.00000   0.01541   0.00000   0.00000
  42        2S         -0.27533   0.00000   0.06551   0.00000   0.00000
  43        3S          0.32639   0.00000   0.35458  -0.00000  -0.00000
  44        4PX         0.16923  -0.00000   0.04142   0.00000   0.00000
  45        4PY        -0.29526   0.00000  -0.07431   0.00000   0.00000
  46        4PZ         0.00000   0.13606   0.00000   0.23468   0.59240
  47 5   H  1S         -0.00717  -0.04540   0.03342  -0.00102  -0.00072
  48        2S          0.03978   0.20823   0.17096   0.00225   0.00064
  49        3S         -0.03893  -0.02215   0.10725  -0.05297  -0.00708
  50        4PX         0.08230  -0.07515   0.15039  -0.61839  -0.01052
  51        4PY        -0.06253  -0.10593  -0.07122   0.22793  -0.49016
  52        4PZ        -0.00280   0.30643   0.02377  -0.11903  -0.29308
  53 6   H  1S          0.05285  -0.00000  -0.02134   0.00000   0.00000
  54        2S         -0.26039  -0.00000  -0.62055   0.00000   0.00000
  55        3S         -0.44962  -0.00000  -0.01064   0.00000   0.00000
  56        4PX        -0.22205  -0.00000   0.21585   0.00000   0.00000
  57        4PY         0.00340   0.00000   0.37262  -0.00000   0.00000
  58        4PZ        -0.00000  -0.02784  -0.00000   0.20043   0.00676
                          36        37        38        39        40
                           V         V         V         V         V
     Eigenvalues --     1.27626   1.36373   1.45029   1.47375   1.55235
   1 1   Si 1S          0.00086   0.00000   0.00191   0.00000  -0.00194
   2        2S          0.00261   0.00000   0.00513  -0.00000  -0.00561
   3        3S         -0.00869  -0.00000  -0.01048   0.00000   0.01533
   4        4S         -0.00212   0.00000  -0.04255   0.00000   0.03108
   5        5S          0.05391   0.00000   0.25505  -0.00000  -0.32165
   6        6S         -0.28642  -0.00000  -0.06658  -0.00000   0.24990
   7        7PX        -0.00331  -0.00000   0.03870  -0.00000  -0.06118
   8        7PY        -0.00440  -0.00000   0.06005  -0.00000   0.05515
   9        7PZ         0.00000  -0.01277   0.00000   0.08356  -0.00000
  10        8PX        -0.01246  -0.00000   0.08866  -0.00000  -0.13970
  11        8PY        -0.01081  -0.00000   0.14780  -0.00000   0.12523
  12        8PZ         0.00000  -0.03144   0.00000   0.19698  -0.00000
  13        9PX         0.08039   0.00000  -0.46229   0.00000   0.77737
  14        9PY         0.04817   0.00000  -0.83685   0.00000  -0.67208
  15        9PZ        -0.00000   0.18629  -0.00000  -1.06277   0.00000
  16       10PX        -0.02267  -0.00000   0.27021  -0.00000  -0.66286
  17       10PY         0.02570  -0.00000   1.15865  -0.00000   0.81427
  18       10PZ         0.00000  -0.24263   0.00000   1.31531  -0.00000
  19       11PX         0.05218   0.00000  -0.11112   0.00000   0.16561
  20       11PY         0.00812  -0.00000  -0.16352   0.00000  -0.16875
  21       11PZ        -0.00000   0.00028  -0.00000  -0.18262   0.00000
  22 2   O  1S          0.00936   0.00000  -0.01711   0.00000   0.01278
  23        2S          0.01771   0.00000  -0.03568   0.00000   0.02669
  24        2PX        -0.02292  -0.00000  -0.00021  -0.00000   0.00041
  25        2PY         0.04747  -0.00000   0.01990  -0.00000   0.03699
  26        2PZ         0.00000  -0.02022   0.00000   0.01718  -0.00000
  27        3S         -0.10749  -0.00000   0.31348  -0.00000  -0.20796
  28        3PX        -0.08548  -0.00000   0.09218  -0.00000  -0.09625
  29        3PY         0.13063  -0.00000   0.06958  -0.00000   0.02836
  30        3PZ         0.00000  -0.01589   0.00000   0.07463  -0.00000
  31        4S          0.02454   0.00000  -0.56095   0.00000  -0.01234
  32        4PX         0.28237   0.00000  -0.23998   0.00000   0.61570
  33        4PY        -0.39756   0.00000  -0.59171   0.00000  -0.09032
  34        4PZ         0.00000  -0.32985  -0.00000  -0.44933   0.00000
  35 3   H  1S          0.00830   0.03067  -0.03504  -0.06517  -0.04259
  36        2S          0.00304   0.03027  -0.20632  -0.26587   0.01287
  37        3S          0.05254   0.02576   0.11150   0.09668  -0.06693
  38        4PX        -0.34089  -0.20532  -0.01383   0.00974   0.20656
  39        4PY        -0.03464  -0.09936  -0.56013   0.09075  -0.23171
  40        4PZ         0.18818   0.14464   0.16133  -0.44221   0.03699
  41 4   H  1S         -0.00522  -0.00000   0.08353  -0.00000   0.04008
  42        2S          0.06341  -0.00000   0.23473  -0.00000   0.26956
  43        3S          0.00191   0.00000  -0.06518   0.00000  -0.20911
  44        4PX         0.75153   0.00000  -0.07285   0.00000   0.24309
  45        4PY         0.29209   0.00000  -0.24221   0.00000  -0.23439
  46        4PZ        -0.00000   0.30437  -0.00000  -0.58698   0.00000
  47 5   H  1S          0.00830  -0.03067  -0.03504   0.06517  -0.04259
  48        2S          0.00304  -0.03027  -0.20632   0.26587   0.01287
  49        3S          0.05254  -0.02576   0.11150  -0.09668  -0.06693
  50        4PX        -0.34089   0.20532  -0.01383  -0.00974   0.20656
  51        4PY        -0.03464   0.09936  -0.56013  -0.09075  -0.23171
  52        4PZ        -0.18818   0.14464  -0.16133  -0.44221  -0.03699
  53 6   H  1S          0.07288  -0.00000   0.02031  -0.00000  -0.04142
  54        2S          0.20948  -0.00000   0.40762  -0.00000   0.25098
  55        3S          0.06419   0.00000  -0.06941   0.00000   0.01497
  56        4PX         0.04612  -0.00000   0.40559  -0.00000  -0.69083
  57        4PY         0.01088  -0.00000   0.17401  -0.00000  -0.50024
  58        4PZ        -0.00000   0.94466   0.00000   0.42734  -0.00000
                          41        42        43        44        45
                           V         V         V         V         V
     Eigenvalues --     1.65095   1.67646   1.67804   1.77433   2.03381
   1 1   Si 1S          0.00031   0.00000   0.00162   0.01530   0.00181
   2        2S          0.00120   0.00000   0.00471   0.04308   0.00544
   3        3S         -0.00686  -0.00000  -0.01422  -0.11195  -0.01740
   4        4S          0.01763  -0.00000  -0.00861  -0.22022  -0.01548
   5        5S         -0.04816   0.00000  -0.01491   0.71613   0.10638
   6        6S         -0.59456  -0.00000  -0.17212   1.38764  -0.04433
   7        7PX        -0.00878  -0.00000  -0.01544  -0.03589   0.00004
   8        7PY         0.05239  -0.00000  -0.06522   0.00145  -0.00638
   9        7PZ         0.00000   0.07950  -0.00000  -0.00000   0.00000
  10        8PX        -0.00936  -0.00000  -0.02560  -0.06396  -0.00213
  11        8PY         0.10705  -0.00000  -0.12768   0.00301  -0.00705
  12        8PZ         0.00000   0.15500  -0.00000  -0.00000   0.00000
  13        9PX        -0.11199   0.00000   0.03566   0.28110   0.01789
  14        9PY        -0.45612   0.00000   0.45457   0.01439   0.01429
  15        9PZ        -0.00000  -0.57415   0.00000   0.00000  -0.00000
  16       10PX         1.12236   0.00000   0.58003  -0.65060  -0.05301
  17       10PY         0.13048   0.00000   0.33272  -0.16935   0.03975
  18       10PZ         0.00000  -0.25689   0.00000   0.00000  -0.00000
  19       11PX        -0.01042  -0.00000  -0.01960   0.23523   0.16891
  20       11PY        -0.24174   0.00000   0.32675  -0.05816  -0.07955
  21       11PZ        -0.00000  -0.43534   0.00000   0.00000  -0.00000
  22 2   O  1S          0.03077   0.00000   0.01442  -0.03133   0.03449
  23        2S          0.06301   0.00000   0.02976  -0.06355   0.06711
  24        2PX        -0.02895  -0.00000  -0.00437   0.03220   0.09053
  25        2PY        -0.00999   0.00000   0.02815   0.00602  -0.16012
  26        2PZ         0.00000  -0.02201   0.00000   0.00000  -0.00000
  27        3S         -0.55647  -0.00000  -0.26927   0.54808  -0.35626
  28        3PX        -0.13730  -0.00000  -0.09185   0.15192   0.25855
  29        3PY        -0.00532   0.00000   0.12004  -0.01692  -0.43076
  30        3PZ         0.00000  -0.10110   0.00000   0.00000   0.00000
  31        4S          1.38650   0.00000   0.63706  -1.21453  -0.44630
  32        4PX         0.63649   0.00000   0.51276  -0.74060   0.05941
  33        4PY         0.32400  -0.00000  -0.21531  -0.16282  -0.04669
  34        4PZ        -0.00000   0.39831  -0.00000  -0.00000   0.00000
  35 3   H  1S         -0.04231   0.09990  -0.13499  -0.29304  -0.03020
  36        2S         -0.02716  -0.07356   0.06566   0.25319   0.04723
  37        3S          0.18248   0.61824  -0.34648  -0.51757  -0.08470
  38        4PX        -0.55007  -0.31857  -0.03758   0.27377   0.03354
  39        4PY         0.15545  -0.50230  -0.02516   0.31054   0.01786
  40        4PZ         0.01323  -0.40031   0.64444   0.36468   0.04810
  41 4   H  1S         -0.10440   0.00000   0.03417  -0.33049   0.07217
  42        2S          0.09316   0.00000   0.00589   0.23907  -0.05355
  43        3S         -0.32554   0.00000   0.50953  -0.69412  -0.05645
  44        4PX        -0.24780  -0.00000  -0.52955   0.34254  -0.01594
  45        4PY        -0.67486   0.00000   0.34826  -0.57407  -0.00380
  46        4PZ        -0.00000   0.45089  -0.00000  -0.00000   0.00000
  47 5   H  1S         -0.04231  -0.09990  -0.13499  -0.29304  -0.03020
  48        2S         -0.02716   0.07356   0.06566   0.25319   0.04723
  49        3S          0.18248  -0.61824  -0.34648  -0.51757  -0.08470
  50        4PX        -0.55007   0.31857  -0.03758   0.27377   0.03354
  51        4PY         0.15545   0.50230  -0.02516   0.31054   0.01786
  52        4PZ        -0.01323  -0.40031  -0.64444  -0.36468  -0.04810
  53 6   H  1S          0.03957  -0.00000  -0.01979  -0.05726   1.00738
  54        2S         -0.40028   0.00000   0.10756   0.21086  -0.68531
  55        3S          0.18036  -0.00000  -0.02957  -0.01252   0.76194
  56        4PX        -0.17963  -0.00000  -0.24404   0.27201   0.57144
  57        4PY        -0.00946  -0.00000  -0.06027   0.11361  -0.89431
  58        4PZ         0.00000  -0.26283   0.00000   0.00000  -0.00000
                          46        47        48        49        50
                           V         V         V         V         V
     Eigenvalues --     2.35242   2.36833   2.40259   2.49242   4.79676
   1 1   Si 1S         -0.00000   0.00094  -0.00104  -0.01237  -0.00000
   2        2S         -0.00000   0.00280  -0.00329  -0.03550  -0.00000
   3        3S          0.00000  -0.00877   0.01209   0.09914   0.00000
   4        4S         -0.00000  -0.00942   0.00161   0.19701  -0.00000
   5        5S         -0.00000   0.04436   0.03294  -0.82392   0.00000
   6        6S          0.00000  -0.04275  -0.15404  -0.37294   0.00000
   7        7PX        -0.00000  -0.00315   0.01803   0.01126   0.00000
   8        7PY         0.00000   0.00144  -0.00844   0.00379  -0.00000
   9        7PZ         0.00038   0.00000   0.00000   0.00000   0.00263
  10        8PX        -0.00000  -0.00523   0.03615   0.02778  -0.00000
  11        8PY        -0.00000  -0.02414  -0.01356   0.00349   0.00000
  12        8PZ         0.02689  -0.00000  -0.00000   0.00000  -0.00193
  13        9PX         0.00000   0.02954  -0.24260  -0.11280   0.00000
  14        9PY         0.00000   0.10065   0.05636  -0.02043  -0.00000
  15        9PZ        -0.12742   0.00000   0.00000  -0.00000   0.00430
  16       10PX        -0.00000   0.00100   0.20876  -0.06037  -0.00000
  17       10PY         0.00000   0.52084   0.13266   0.06574   0.00000
  18       10PZ        -0.41265   0.00000   0.00000   0.00000   0.05490
  19       11PX         0.00000   0.05060  -0.19462   0.17492   0.00000
  20       11PY        -0.00000  -0.57102  -0.08328  -0.10810  -0.00000
  21       11PZ         0.47150  -0.00000  -0.00000   0.00000   0.23651
  22 2   O  1S          0.00000  -0.00290   0.03032   0.00861  -0.00000
  23        2S          0.00000  -0.00614   0.06866   0.01675  -0.00000
  24        2PX         0.00000   0.00682   0.00151  -0.00357  -0.00000
  25        2PY        -0.00000  -0.01521   0.02482  -0.00424  -0.00000
  26        2PZ         0.01005  -0.00000  -0.00000   0.00000  -1.26670
  27        3S         -0.00000   0.06593  -0.52572  -0.18207   0.00000
  28        3PX         0.00000  -0.01078   0.36773  -0.12421   0.00000
  29        3PY        -0.00000   0.02599  -0.52604   0.08363   0.00000
  30        3PZ        -0.02062   0.00000   0.00000   0.00000   1.43485
  31        4S         -0.00000  -0.15113  -1.01959   0.71748  -0.00000
  32        4PX         0.00000   0.12456   0.31672   0.31079  -0.00000
  33        4PY        -0.00000  -0.19230  -0.67094   0.14437  -0.00000
  34        4PZ         0.10244  -0.00000  -0.00000  -0.00000  -0.63510
  35 3   H  1S         -1.12621   0.70356  -0.07812  -0.82429  -0.01182
  36        2S          1.63698  -1.04661   0.03698   1.26592   0.01132
  37        3S         -1.05352   0.66547   0.14803  -0.31696  -0.16321
  38        4PX        -0.06163   0.03989  -0.04521  -0.06771  -0.00238
  39        4PY        -0.09477  -0.07394  -0.03979  -0.17957   0.01990
  40        4PZ        -0.02392   0.12596  -0.00275  -0.28566   0.00170
  41 4   H  1S         -0.00000  -1.24255  -0.20214  -0.93695  -0.00000
  42        2S          0.00000   1.87314   0.33606   1.45525   0.00000
  43        3S         -0.00000  -1.28582  -0.14055  -0.49322  -0.00000
  44        4PX        -0.00000  -0.08088   0.00007  -0.08810   0.00000
  45        4PY         0.00000   0.06474   0.07809   0.34409  -0.00000
  46        4PZ         0.13606  -0.00000  -0.00000  -0.00000  -0.03206
  47 5   H  1S          1.12621   0.70356  -0.07812  -0.82429   0.01182
  48        2S         -1.63698  -1.04661   0.03698   1.26592  -0.01132
  49        3S          1.05352   0.66547   0.14803  -0.31696   0.16321
  50        4PX         0.06163   0.03989  -0.04521  -0.06771   0.00238
  51        4PY         0.09477  -0.07394  -0.03979  -0.17957  -0.01990
  52        4PZ        -0.02392  -0.12596   0.00275   0.28566   0.00170
  53 6   H  1S         -0.00000   0.10848  -1.20085   0.21925  -0.00000
  54        2S          0.00000   0.03945   2.99804  -0.62034   0.00000
  55        3S         -0.00000   0.12148  -0.72870   0.36690  -0.00000
  56        4PX         0.00000  -0.02435   0.70613  -0.15105  -0.00000
  57        4PY        -0.00000  -0.04335  -1.07301   0.13605   0.00000
  58        4PZ        -0.03566   0.00000   0.00000   0.00000  -0.02442
                          51        52        53        54        55
                           V         V         V         V         V
     Eigenvalues --     4.82353   5.12961   5.52695  11.28027  11.28049
   1 1   Si 1S         -0.01597   0.01876   0.10846   0.00000   0.00080
   2        2S         -0.05897   0.07004   0.40751   0.00000   0.00304
   3        3S          0.32379  -0.39533  -2.35800  -0.00000  -0.02287
   4        4S         -0.36087   0.46335   2.82957   0.00000   0.04114
   5        5S          0.26871  -0.35576  -2.03941  -0.00000  -0.05027
   6        6S          0.38921  -0.24656   1.52330  -0.00000  -0.11698
   7        7PX        -0.04779   0.02697  -0.00171  -0.00000  -1.14216
   8        7PY        -0.00347   0.01178  -0.00192  -0.00000  -0.33607
   9        7PZ        -0.00000   0.00000  -0.00000  -1.19154   0.00000
  10        8PX        -0.00513  -0.00154   0.00179   0.00000   1.32135
  11        8PY        -0.00173  -0.00116   0.00025   0.00000   0.38892
  12        8PZ         0.00000  -0.00000   0.00000   1.37901  -0.00000
  13        9PX         0.08863  -0.00843  -0.02021  -0.00000  -0.97765
  14        9PY         0.01244  -0.02823   0.00595  -0.00000  -0.28707
  15        9PZ         0.00000  -0.00000  -0.00000  -1.01828   0.00000
  16       10PX        -0.32283   0.18770   0.01575   0.00000   0.66772
  17       10PY         0.00606   0.12343  -0.02156   0.00000   0.18124
  18       10PZ        -0.00000   0.00000  -0.00000   0.61457  -0.00000
  19       11PX         0.05754   0.06697   0.09290  -0.00000  -0.23901
  20       11PY         0.18203   0.05201   0.05115  -0.00000  -0.04601
  21       11PZ        -0.00000  -0.00000   0.00000  -0.20820   0.00000
  22 2   O  1S         -0.00534  -0.00711  -0.00019   0.00000   0.00339
  23        2S         -0.01284  -0.01301   0.00122   0.00000   0.00233
  24        2PX        -0.97140   0.79352  -0.28283   0.00000   0.07293
  25        2PY        -0.79944  -1.00166   0.05645   0.00000   0.00965
  26        2PZ         0.00000   0.00000  -0.00000  -0.00316   0.00000
  27        3S          0.13792   0.04470  -0.04919   0.00000   0.00328
  28        3PX         1.13454  -1.08537   0.37439  -0.00000  -0.12309
  29        3PY         0.91514   1.35310  -0.08921  -0.00000  -0.02375
  30        3PZ        -0.00000  -0.00000   0.00000  -0.00005   0.00000
  31        4S         -0.38764   0.40630   0.12038   0.00000   0.06354
  32        4PX        -0.70327   0.68400  -0.01842   0.00000   0.09595
  33        4PY        -0.46948  -0.50303   0.12009  -0.00000  -0.01307
  34        4PZ         0.00000  -0.00000   0.00000  -0.01606   0.00000
  35 3   H  1S          0.00446  -0.02216  -0.06352   0.00070  -0.00494
  36        2S         -0.04652   0.07334   0.27332  -0.03796  -0.00815
  37        3S         -0.12990  -0.01935  -0.39982   0.05095   0.05048
  38        4PX         0.02667  -0.03341  -0.05141  -0.02558  -0.02919
  39        4PY         0.00005  -0.03456  -0.07572  -0.03638  -0.02731
  40        4PZ         0.03705  -0.01460  -0.12555  -0.06682  -0.03882
  41 4   H  1S          0.01240  -0.00914  -0.05836  -0.00000  -0.00459
  42        2S         -0.05803   0.11484   0.25058   0.00000   0.01249
  43        3S          0.06616   0.02733  -0.33486   0.00000   0.03768
  44        4PX         0.02722  -0.01228  -0.05972  -0.00000  -0.01543
  45        4PY        -0.01756   0.03940   0.14556   0.00000   0.01293
  46        4PZ         0.00000  -0.00000   0.00000  -0.00570   0.00000
  47 5   H  1S          0.00446  -0.02216  -0.06352  -0.00070  -0.00494
  48        2S         -0.04652   0.07334   0.27332   0.03796  -0.00815
  49        3S         -0.12990  -0.01935  -0.39982  -0.05095   0.05048
  50        4PX         0.02667  -0.03341  -0.05141   0.02558  -0.02919
  51        4PY         0.00005  -0.03456  -0.07572   0.03638  -0.02731
  52        4PZ        -0.03705   0.01460   0.12555  -0.06682   0.03882
  53 6   H  1S         -0.07534  -0.25930   0.03751  -0.00000  -0.02342
  54        2S          0.20506  -0.02532  -0.07639   0.00000   0.08034
  55        3S         -0.17433   0.17530  -0.09534  -0.00000  -0.06379
  56        4PX        -0.00576  -0.26411  -0.05213   0.00000   0.03504
  57        4PY         0.01304   0.32495  -0.06514   0.00000   0.00373
  58        4PZ         0.00000   0.00000  -0.00000   0.00085  -0.00000
                          56        57        58
                           V         V         V
     Eigenvalues --    11.29318  49.80102 140.94347
   1 1   Si 1S         -0.00021  -0.00005  -1.55019
   2        2S         -0.00078   0.00005   1.86095
   3        3S          0.00575  -0.00120  -1.26455
   4        4S         -0.00958   0.00679   0.83276
   5        5S          0.01080  -0.00442  -0.42855
   6        6S          0.00152  -0.14013   0.30095
   7        7PX         0.33621  -0.00174  -0.00098
   8        7PY        -1.14334   0.00032  -0.00004
   9        7PZ         0.00000   0.00000  -0.00000
  10        8PX        -0.38972   0.00297   0.00272
  11        8PY         1.32511  -0.00085   0.00008
  12        8PZ        -0.00000  -0.00000   0.00000
  13        9PX         0.29426   0.00165  -0.00628
  14        9PY        -0.98537   0.00350   0.00036
  15        9PZ         0.00000  -0.00000  -0.00000
  16       10PX        -0.19138   0.05524   0.01766
  17       10PY         0.60022  -0.00212  -0.00122
  18       10PZ        -0.00000   0.00000  -0.00000
  19       11PX         0.08360  -0.00385   0.01974
  20       11PY        -0.21667   0.01800   0.00748
  21       11PZ         0.00000  -0.00000   0.00000
  22 2   O  1S         -0.00137  -2.24640  -0.00008
  23        2S         -0.00118   2.33516  -0.00006
  24        2PX        -0.00687   0.00048  -0.00486
  25        2PY        -0.01256   0.00869  -0.00049
  26        2PZ         0.00000   0.00000  -0.00000
  27        3S          0.00688  -0.27619  -0.00931
  28        3PX         0.00329   0.00081   0.00903
  29        3PY         0.02643  -0.03518   0.00165
  30        3PZ        -0.00000  -0.00000  -0.00000
  31        4S         -0.00275   0.23838   0.03832
  32        4PX         0.01108   0.06121   0.03294
  33        4PY        -0.02056   0.01936   0.01783
  34        4PZ         0.00000   0.00000   0.00000
  35 3   H  1S          0.00079  -0.00432  -0.00892
  36        2S         -0.01800   0.01528   0.04930
  37        3S          0.02233   0.01842  -0.07868
  38        4PX        -0.00936  -0.00835  -0.01008
  39        4PY        -0.02263  -0.00264  -0.01314
  40        4PZ        -0.02719  -0.00258  -0.02157
  41 4   H  1S         -0.00443  -0.00250  -0.00797
  42        2S          0.05533   0.00915   0.04652
  43        3S         -0.08306   0.04063  -0.06961
  44        4PX         0.03713  -0.00780  -0.01083
  45        4PY        -0.09586   0.00396   0.02499
  46        4PZ         0.00000   0.00000  -0.00000
  47 5   H  1S          0.00079  -0.00432  -0.00892
  48        2S         -0.01800   0.01528   0.04930
  49        3S          0.02233   0.01842  -0.07868
  50        4PX        -0.00936  -0.00835  -0.01008
  51        4PY        -0.02263  -0.00264  -0.01314
  52        4PZ         0.02719   0.00258   0.02157
  53 6   H  1S          0.01129  -0.00172   0.00109
  54        2S         -0.04015   0.01920  -0.01861
  55        3S          0.05151  -0.02431  -0.01022
  56        4PX        -0.03397   0.01886  -0.01511
  57        4PY         0.00857  -0.04611  -0.00237
  58        4PZ         0.00000  -0.00000  -0.00000
     Density Matrix:
                           1         2         3         4         5
   1 1   Si 1S          0.37763
   2        2S          0.61538   1.03253
   3        3S         -0.12302  -0.33305   0.63299
   4        4S         -0.15324  -0.39576   0.70800   0.80883
   5        5S          0.01690   0.04612  -0.11691  -0.22443   0.56523
   6        6S          0.01803   0.04998  -0.10852  -0.15410   0.20917
   7        7PX        -0.00043  -0.00118   0.00285   0.00307  -0.00446
   8        7PY        -0.00002  -0.00005   0.00013   0.00022   0.00056
   9        7PZ        -0.00000  -0.00000   0.00000   0.00000  -0.00000
  10        8PX        -0.00041  -0.00121   0.00354   0.00353  -0.00606
  11        8PY        -0.00003  -0.00009   0.00021   0.00032   0.00119
  12        8PZ         0.00000   0.00000  -0.00000  -0.00000  -0.00000
  13        9PX         0.00039   0.00107  -0.00267  -0.00353   0.00152
  14        9PY        -0.00007  -0.00020   0.00043   0.00079  -0.00389
  15        9PZ        -0.00000  -0.00000   0.00000  -0.00000   0.00000
  16       10PX         0.00221   0.00614  -0.01402  -0.02159   0.03582
  17       10PY         0.00067   0.00186  -0.00435  -0.00701   0.01102
  18       10PZ        -0.00000  -0.00000   0.00000  -0.00000   0.00000
  19       11PX         0.00121   0.00338  -0.00752  -0.01073   0.01473
  20       11PY         0.00124   0.00341  -0.00770  -0.01188   0.02054
  21       11PZ        -0.00000  -0.00000   0.00000   0.00000  -0.00000
  22 2   O  1S         -0.00042  -0.00112   0.00221   0.00352  -0.00642
  23        2S         -0.00067  -0.00177   0.00347   0.00559  -0.00992
  24        2PX         0.00459   0.01256  -0.02831  -0.04718   0.09782
  25        2PY         0.00084   0.00235  -0.00563  -0.00813   0.01336
  26        2PZ         0.00000   0.00000  -0.00000  -0.00000  -0.00000
  27        3S          0.00161   0.00421  -0.00778  -0.01271   0.02104
  28        3PX         0.00683   0.01876  -0.04242  -0.07045   0.14502
  29        3PY         0.00126   0.00351  -0.00842  -0.01237   0.02095
  30        3PZ        -0.00000  -0.00000   0.00000   0.00000  -0.00000
  31        4S          0.00023   0.00063   0.00010  -0.00056   0.00143
  32        4PX         0.00475   0.01311  -0.02933  -0.04786   0.09635
  33        4PY         0.00247   0.00689  -0.01599  -0.02442   0.04423
  34        4PZ         0.00000   0.00000  -0.00000  -0.00000  -0.00000
  35 3   H  1S          0.00415   0.01136  -0.02596  -0.04200   0.07852
  36        2S          0.00703   0.01947  -0.04433  -0.06949   0.12078
  37        3S         -0.00003  -0.00023  -0.00060  -0.00575   0.02755
  38        4PX        -0.00035  -0.00099   0.00228   0.00345  -0.00557
  39        4PY        -0.00047  -0.00136   0.00317   0.00482  -0.00787
  40        4PZ        -0.00077  -0.00219   0.00510   0.00776  -0.01253
  41 4   H  1S          0.00439   0.01203  -0.02754  -0.04444   0.08579
  42        2S          0.00771   0.02134  -0.04888  -0.07668   0.14039
  43        3S          0.00170   0.00455  -0.01156  -0.02268   0.06128
  44        4PX        -0.00036  -0.00104   0.00241   0.00365  -0.00616
  45        4PY         0.00102   0.00290  -0.00680  -0.01040   0.01787
  46        4PZ         0.00000   0.00000  -0.00000  -0.00000   0.00000
  47 5   H  1S          0.00415   0.01136  -0.02596  -0.04200   0.07852
  48        2S          0.00703   0.01947  -0.04433  -0.06949   0.12078
  49        3S         -0.00003  -0.00023  -0.00060  -0.00575   0.02755
  50        4PX        -0.00035  -0.00099   0.00228   0.00345  -0.00557
  51        4PY        -0.00047  -0.00136   0.00317   0.00482  -0.00787
  52        4PZ         0.00077   0.00219  -0.00510  -0.00776   0.01253
  53 6   H  1S         -0.00108  -0.00294   0.00660   0.01183  -0.02747
  54        2S         -0.00229  -0.00633   0.01423   0.02440  -0.05267
  55        3S         -0.00080  -0.00220   0.00455   0.00686  -0.01114
  56        4PX        -0.00008  -0.00028   0.00061   0.00077  -0.00053
  57        4PY         0.00052   0.00143  -0.00331  -0.00572   0.01278
  58        4PZ        -0.00000  -0.00000   0.00000   0.00000  -0.00000
                           6         7         8         9        10
   6        6S          0.16183
   7        7PX        -0.02369   0.33495
   8        7PY        -0.00332  -0.00023   0.33733
   9        7PZ         0.00000   0.00000   0.00000   0.33704
  10        8PX        -0.04227   0.57212  -0.00033  -0.00000   0.97729
  11        8PY        -0.00597  -0.00031   0.57556   0.00000  -0.00043
  12        8PZ         0.00000  -0.00000   0.00000   0.57510  -0.00000
  13        9PX         0.06376   0.02660   0.00026   0.00000   0.04321
  14        9PY         0.00812   0.00003   0.02294  -0.00000  -0.00006
  15        9PZ        -0.00000   0.00000   0.00000   0.02349   0.00000
  16       10PX         0.04115  -0.02291   0.00189  -0.00000  -0.04002
  17       10PY         0.01283   0.00316  -0.04340   0.00000   0.00547
  18       10PZ        -0.00000  -0.00000   0.00000  -0.04241   0.00000
  19       11PX         0.02241  -0.00308   0.00235   0.00000  -0.00578
  20       11PY         0.00705   0.00465  -0.00789  -0.00000   0.00820
  21       11PZ        -0.00000   0.00000   0.00000  -0.00619   0.00000
  22 2   O  1S          0.03093  -0.00505  -0.00079   0.00000  -0.00956
  23        2S          0.04715  -0.00813  -0.00127   0.00000  -0.01533
  24        2PX        -0.03240   0.02848   0.00072  -0.00000   0.05139
  25        2PY         0.01436   0.00523  -0.00368  -0.00000   0.00883
  26        2PZ         0.00000  -0.00000  -0.00000  -0.00666  -0.00000
  27        3S         -0.12470   0.02148   0.00389  -0.00000   0.04046
  28        3PX        -0.04955   0.04203   0.00136   0.00000   0.07588
  29        3PY         0.01643   0.00887  -0.00578   0.00000   0.01516
  30        3PZ         0.00000  -0.00000  -0.00000  -0.00994  -0.00000
  31        4S         -0.16644   0.03521   0.00239  -0.00000   0.06511
  32        4PX        -0.06566   0.04120   0.00082  -0.00000   0.07421
  33        4PY         0.01057   0.01562  -0.00235  -0.00000   0.02730
  34        4PZ         0.00000  -0.00000  -0.00000  -0.00668  -0.00000
  35 3   H  1S          0.05007  -0.00704  -0.01190  -0.01974  -0.01238
  36        2S          0.08470  -0.01326  -0.02363  -0.03954  -0.02342
  37        3S          0.01524  -0.00505  -0.01325  -0.02367  -0.00872
  38        4PX        -0.00231   0.00012   0.00104   0.00179   0.00018
  39        4PY        -0.00542   0.00087   0.00090   0.00244   0.00154
  40        4PZ        -0.00912   0.00157   0.00253   0.00361   0.00277
  41 4   H  1S          0.04654  -0.00795   0.02330  -0.00000  -0.01397
  42        2S          0.08358  -0.01467   0.04712   0.00000  -0.02597
  43        3S          0.01856  -0.00013   0.02489  -0.00000  -0.00005
  44        4PX        -0.00215   0.00029  -0.00202  -0.00000   0.00048
  45        4PY         0.01147  -0.00190   0.00516   0.00000  -0.00338
  46        4PZ        -0.00000   0.00000   0.00000  -0.00052   0.00000
  47 5   H  1S          0.05007  -0.00704  -0.01190   0.01974  -0.01238
  48        2S          0.08470  -0.01326  -0.02363   0.03954  -0.02342
  49        3S          0.01524  -0.00505  -0.01325   0.02367  -0.00872
  50        4PX        -0.00231   0.00012   0.00104  -0.00179   0.00018
  51        4PY        -0.00542   0.00087   0.00090  -0.00244   0.00154
  52        4PZ         0.00912  -0.00157  -0.00253   0.00361  -0.00277
  53 6   H  1S          0.00600  -0.00578  -0.00123  -0.00000  -0.01057
  54        2S          0.02838  -0.01690  -0.00019   0.00000  -0.03071
  55        3S          0.01091  -0.00455   0.00235   0.00000  -0.00835
  56        4PX         0.00260  -0.00047  -0.00043   0.00000  -0.00089
  57        4PY        -0.00011   0.00324  -0.00045   0.00000   0.00578
  58        4PZ         0.00000  -0.00000  -0.00000  -0.00077  -0.00000
                          11        12        13        14        15
  11        8PY         0.98204
  12        8PZ         0.00000   0.98132
  13        9PX         0.00028   0.00000   0.06742
  14        9PY         0.03800  -0.00000   0.00045   0.06944
  15        9PZ         0.00000   0.03896  -0.00000   0.00000   0.06786
  16       10PX         0.00325  -0.00000   0.03302  -0.00371   0.00000
  17       10PY        -0.07551   0.00000  -0.00716   0.08177   0.00000
  18       10PZ         0.00000  -0.07385  -0.00000  -0.00000   0.07968
  19       11PX         0.00405   0.00000   0.01608  -0.00584  -0.00000
  20       11PY        -0.01392  -0.00000  -0.01213   0.02313  -0.00000
  21       11PZ         0.00000  -0.01101  -0.00000  -0.00000   0.01845
  22 2   O  1S         -0.00145  -0.00000   0.01310   0.00147   0.00000
  23        2S         -0.00235   0.00000   0.02091   0.00241   0.00000
  24        2PX         0.00151  -0.00000  -0.07638  -0.00407   0.00000
  25        2PY        -0.00672  -0.00000  -0.00997   0.00404   0.00000
  26        2PZ        -0.00000  -0.01198   0.00000   0.00000   0.01016
  27        3S          0.00718   0.00000  -0.05409  -0.00736  -0.00000
  28        3PX         0.00276  -0.00000  -0.11222  -0.00636  -0.00000
  29        3PY        -0.01049  -0.00000  -0.01761   0.00702   0.00000
  30        3PZ        -0.00000  -0.01784   0.00000   0.00000   0.01567
  31        4S          0.00478  -0.00000  -0.09452  -0.00255   0.00000
  32        4PX         0.00176  -0.00000  -0.10896  -0.00656   0.00000
  33        4PY        -0.00443  -0.00000  -0.03686  -0.00025   0.00000
  34        4PZ        -0.00000  -0.01220   0.00000   0.00000   0.00753
  35 3   H  1S         -0.02079  -0.03447   0.01728   0.02890   0.04827
  36        2S         -0.04128  -0.06900   0.03348   0.05772   0.09771
  37        3S         -0.02305  -0.04121   0.01027   0.03184   0.05738
  38        4PX         0.00182   0.00312   0.00022  -0.00235  -0.00424
  39        4PY         0.00156   0.00425  -0.00213  -0.00172  -0.00586
  40        4PZ         0.00441   0.00629  -0.00391  -0.00598  -0.00833
  41 4   H  1S          0.04066  -0.00000   0.01935  -0.05660  -0.00000
  42        2S          0.08217   0.00000   0.03718  -0.11525  -0.00000
  43        3S          0.04339  -0.00000  -0.00278  -0.05917   0.00000
  44        4PX        -0.00353  -0.00000  -0.00018   0.00480  -0.00000
  45        4PY         0.00897   0.00000   0.00473  -0.01189  -0.00000
  46        4PZ         0.00000  -0.00090  -0.00000   0.00000   0.00160
  47 5   H  1S         -0.02079   0.03447   0.01728   0.02890  -0.04827
  48        2S         -0.04128   0.06900   0.03348   0.05772  -0.09771
  49        3S         -0.02305   0.04121   0.01027   0.03184  -0.05738
  50        4PX         0.00182  -0.00312   0.00022  -0.00235   0.00424
  51        4PY         0.00156  -0.00425  -0.00213  -0.00172   0.00586
  52        4PZ        -0.00441   0.00629   0.00391   0.00598  -0.00833
  53 6   H  1S         -0.00238  -0.00000   0.01863   0.00094  -0.00000
  54        2S         -0.00071   0.00000   0.04707  -0.00217   0.00000
  55        3S          0.00401   0.00000   0.01492  -0.00665  -0.00000
  56        4PX        -0.00081   0.00000   0.00153   0.00076  -0.00000
  57        4PY        -0.00075   0.00000  -0.00889   0.00106   0.00000
  58        4PZ        -0.00000  -0.00137  -0.00000  -0.00000   0.00109
                          16        17        18        19        20
  16       10PX         0.02877
  17       10PY        -0.01147   0.11706
  18       10PZ         0.00000  -0.00000   0.11556
  19       11PX         0.00940  -0.00806  -0.00000   0.00546
  20       11PY        -0.01352   0.03889  -0.00000  -0.00297   0.02173
  21       11PZ        -0.00000  -0.00000   0.03532  -0.00000   0.00000
  22 2   O  1S         -0.00658   0.00325   0.00000   0.00368   0.00674
  23        2S         -0.00970   0.00531   0.00000   0.00589   0.01140
  24        2PX        -0.04612   0.00836   0.00000  -0.01709   0.02366
  25        2PY        -0.01968   0.03167   0.00000   0.00487   0.03734
  26        2PZ        -0.00000   0.00000   0.04898   0.00000   0.00000
  27        3S          0.02856  -0.01723  -0.00000  -0.01564  -0.03697
  28        3PX        -0.06583   0.01116   0.00000  -0.02518   0.03305
  29        3PY        -0.02895   0.04644   0.00000   0.00572   0.05299
  30        3PZ        -0.00000   0.00000   0.07067   0.00000   0.00000
  31        4S         -0.00172  -0.01489   0.00000  -0.03020  -0.03376
  32        4PX        -0.06592   0.01314   0.00000  -0.02418   0.03401
  33        4PY        -0.04303   0.03844   0.00000   0.00136   0.05638
  34        4PZ        -0.00000   0.00000   0.06571   0.00000   0.00000
  35 3   H  1S          0.01467   0.03718   0.06032   0.00333   0.00785
  36        2S          0.02717   0.07193   0.11655   0.00505   0.01263
  37        3S          0.01327   0.03527   0.06211  -0.00163  -0.00042
  38        4PX        -0.00010  -0.00331  -0.00537   0.00014  -0.00110
  39        4PY        -0.00170  -0.00219  -0.00670  -0.00056  -0.00037
  40        4PZ        -0.00321  -0.00717  -0.00957  -0.00056  -0.00089
  41 4   H  1S          0.01837  -0.07350   0.00000   0.01324  -0.01840
  42        2S          0.03105  -0.14640   0.00000   0.02671  -0.03269
  43        3S          0.00010  -0.06966   0.00000   0.00868  -0.00806
  44        4PX        -0.00061   0.00604  -0.00000  -0.00074   0.00122
  45        4PY         0.00352  -0.01468   0.00000   0.00323  -0.00268
  46        4PZ         0.00000   0.00000   0.00179  -0.00000  -0.00000
  47 5   H  1S          0.01467   0.03718  -0.06032   0.00333   0.00785
  48        2S          0.02717   0.07193  -0.11655   0.00505   0.01263
  49        3S          0.01327   0.03527  -0.06211  -0.00163  -0.00042
  50        4PX        -0.00010  -0.00331   0.00537   0.00014  -0.00110
  51        4PY        -0.00170  -0.00219   0.00670  -0.00056  -0.00037
  52        4PZ         0.00321   0.00717  -0.00957   0.00056   0.00089
  53 6   H  1S          0.01158   0.01140   0.00000   0.00857   0.00794
  54        2S          0.02463   0.00672   0.00000   0.01686   0.00501
  55        3S          0.00763  -0.00666  -0.00000   0.00565  -0.00103
  56        4PX        -0.00005   0.00398  -0.00000   0.00133   0.00373
  57        4PY        -0.00766   0.00264   0.00000  -0.00232   0.00414
  58        4PZ        -0.00000  -0.00000   0.00510   0.00000   0.00000
                          21        22        23        24        25
  21       11PZ         0.02245
  22 2   O  1S          0.00000   0.63863
  23        2S          0.00000   0.56734   0.52048
  24        2PX         0.00000   0.00319   0.00476   0.13099
  25        2PY         0.00000   0.00996   0.01528   0.01525   0.13982
  26        2PZ         0.05702   0.00000   0.00000  -0.00000  -0.00000
  27        3S         -0.00000  -0.12731  -0.21448  -0.02159  -0.04493
  28        3PX         0.00000  -0.00054  -0.00046   0.18988   0.01983
  29        3PY         0.00000   0.00952   0.01602   0.02544   0.19521
  30        3PZ         0.08051  -0.00000  -0.00000  -0.00000  -0.00000
  31        4S          0.00000  -0.13286  -0.20815   0.04725  -0.09414
  32        4PX         0.00000  -0.00710  -0.01005   0.17051   0.04257
  33        4PY         0.00000   0.01836   0.03042   0.06568   0.18737
  34        4PZ         0.08716   0.00000   0.00000  -0.00000  -0.00000
  35 3   H  1S          0.00817   0.00125   0.00193  -0.01069  -0.00729
  36        2S          0.00808   0.00189   0.00323  -0.02609  -0.02331
  37        3S         -0.00517  -0.00934  -0.01481  -0.01675  -0.03540
  38        4PX        -0.00081   0.00019   0.00016  -0.00120  -0.00008
  39        4PY        -0.00001  -0.00024  -0.00043   0.00143   0.00062
  40        4PZ        -0.00005  -0.00020  -0.00034   0.00323   0.00389
  41 4   H  1S         -0.00000   0.00331   0.00532  -0.00664   0.00758
  42        2S         -0.00000   0.00956   0.01563  -0.01547   0.03674
  43        3S          0.00000   0.00260   0.00516   0.01922   0.03993
  44        4PX        -0.00000   0.00010   0.00002  -0.00114  -0.00116
  45        4PY        -0.00000   0.00161   0.00267  -0.00188   0.00648
  46        4PZ        -0.00001  -0.00000  -0.00000   0.00000   0.00000
  47 5   H  1S         -0.00817   0.00125   0.00193  -0.01069  -0.00729
  48        2S         -0.00808   0.00189   0.00323  -0.02609  -0.02331
  49        3S          0.00517  -0.00934  -0.01481  -0.01675  -0.03540
  50        4PX         0.00081   0.00019   0.00016  -0.00120  -0.00008
  51        4PY         0.00001  -0.00024  -0.00043   0.00143   0.00062
  52        4PZ        -0.00005   0.00020   0.00034  -0.00323  -0.00389
  53 6   H  1S         -0.00000  -0.01619  -0.02568  -0.04908   0.07764
  54        2S         -0.00000  -0.00908  -0.01413  -0.09060   0.09406
  55        3S         -0.00000   0.00054   0.00046  -0.02471   0.02307
  56        4PX         0.00000  -0.00113  -0.00153  -0.00409   0.01835
  57        4PY         0.00000   0.00726   0.01101   0.02031  -0.00195
  58        4PZ         0.00585   0.00000   0.00000   0.00000  -0.00000
                          26        27        28        29        30
  26        2PZ         0.17297
  27        3S         -0.00000   0.65040
  28        3PX         0.00000  -0.01327   0.27578
  29        3PY        -0.00000  -0.05338   0.03397   0.27289
  30        3PZ         0.24319   0.00000   0.00000   0.00000   0.34195
  31        4S         -0.00000   0.57830   0.08503  -0.12046  -0.00000
  32        4PX        -0.00000   0.01211   0.24796   0.06556  -0.00000
  33        4PY        -0.00000  -0.09789   0.09137   0.26246  -0.00000
  34        4PZ         0.27070   0.00000  -0.00000  -0.00000   0.38041
  35 3   H  1S         -0.01183  -0.00453  -0.01532  -0.01011  -0.01550
  36        2S         -0.05074  -0.00797  -0.03753  -0.03247  -0.06902
  37        3S         -0.06136   0.04343  -0.02284  -0.04860  -0.08486
  38        4PX         0.00074   0.00010  -0.00176  -0.00020   0.00094
  39        4PY         0.00456   0.00129   0.00208   0.00091   0.00627
  40        4PZ         0.00637   0.00080   0.00465   0.00545   0.00875
  41 4   H  1S         -0.00000  -0.01443  -0.00949   0.00836  -0.00000
  42        2S         -0.00000  -0.04424  -0.02289   0.04658  -0.00000
  43        3S         -0.00000  -0.01948   0.02753   0.05444  -0.00000
  44        4PX         0.00000   0.00042  -0.00168  -0.00151   0.00000
  45        4PY        -0.00000  -0.00781  -0.00287   0.00849  -0.00000
  46        4PZ        -0.00125   0.00000   0.00000   0.00000  -0.00172
  47 5   H  1S          0.01183  -0.00453  -0.01532  -0.01011   0.01550
  48        2S          0.05074  -0.00797  -0.03753  -0.03247   0.06902
  49        3S          0.06136   0.04343  -0.02284  -0.04860   0.08486
  50        4PX        -0.00074   0.00010  -0.00176  -0.00020  -0.00094
  51        4PY        -0.00456   0.00129   0.00208   0.00091  -0.00627
  52        4PZ         0.00637  -0.00080  -0.00465  -0.00545   0.00875
  53 6   H  1S         -0.00000   0.07467  -0.06998   0.10793   0.00000
  54        2S         -0.00000   0.04372  -0.13132   0.12881  -0.00000
  55        3S          0.00000   0.00140  -0.03604   0.03119   0.00000
  56        4PX         0.00000   0.00341  -0.00599   0.02556   0.00000
  57        4PY         0.00000  -0.03085   0.02871  -0.00248   0.00000
  58        4PZ         0.01770   0.00000   0.00000  -0.00000   0.02489
                          31        32        33        34        35
  31        4S          0.58624
  32        4PX         0.09098   0.23167
  33        4PY        -0.13374   0.11320   0.26892
  34        4PZ        -0.00000  -0.00000  -0.00000   0.42483
  35 3   H  1S         -0.01477  -0.02232  -0.01588  -0.02537   0.07108
  36        2S         -0.02289  -0.05002  -0.04429  -0.09352   0.14124
  37        3S          0.04382  -0.02852  -0.05630  -0.10459   0.07860
  38        4PX        -0.00022  -0.00117  -0.00029   0.00176  -0.00542
  39        4PY         0.00266   0.00274   0.00145   0.00800  -0.00792
  40        4PZ         0.00204   0.00618   0.00668   0.01119  -0.01356
  41 4   H  1S         -0.03947  -0.01326   0.01133  -0.00000  -0.00977
  42        2S         -0.09986  -0.02435   0.05099  -0.00000  -0.02679
  43        3S         -0.03827   0.02908   0.06279  -0.00000  -0.02280
  44        4PX         0.00159  -0.00140  -0.00220   0.00000   0.00141
  45        4PY        -0.01505  -0.00288   0.00876  -0.00000  -0.00222
  46        4PZ         0.00000   0.00000   0.00000  -0.00219   0.00143
  47 5   H  1S         -0.01477  -0.02232  -0.01588   0.02537  -0.01043
  48        2S         -0.02289  -0.05002  -0.04429   0.09352  -0.02997
  49        3S          0.04382  -0.02852  -0.05630   0.10459  -0.02951
  50        4PX        -0.00022  -0.00117  -0.00029  -0.00176   0.00168
  51        4PY         0.00266   0.00274   0.00145  -0.00800   0.00273
  52        4PZ        -0.00204  -0.00618  -0.00668   0.01119  -0.00158
  53 6   H  1S          0.00237  -0.04341   0.07943  -0.00000  -0.00147
  54        2S         -0.05704  -0.09668   0.08816  -0.00000   0.00020
  55        3S         -0.02493  -0.02776   0.02165   0.00000  -0.00183
  56        4PX        -0.00779  -0.00171   0.02201   0.00000  -0.00026
  57        4PY        -0.01459   0.02358   0.00590  -0.00000  -0.00050
  58        4PZ         0.00000   0.00000  -0.00000   0.02770  -0.00116
                          36        37        38        39        40
  36        2S          0.28784
  37        3S          0.16951   0.11624
  38        4PX        -0.01080  -0.00613   0.00046
  39        4PY        -0.01632  -0.00970   0.00060   0.00099
  40        4PZ        -0.02784  -0.01668   0.00101   0.00157   0.00275
  41 4   H  1S         -0.02580  -0.02499   0.00139  -0.00022   0.00266
  42        2S         -0.06534  -0.05932   0.00321   0.00021   0.00698
  43        3S         -0.05159  -0.03998   0.00173   0.00112   0.00580
  44        4PX         0.00328   0.00253  -0.00012  -0.00005  -0.00035
  45        4PY        -0.00605  -0.00666   0.00030  -0.00005   0.00067
  46        4PZ         0.00314   0.00213  -0.00012  -0.00020  -0.00029
  47 5   H  1S         -0.02997  -0.02951   0.00168   0.00273   0.00158
  48        2S         -0.07971  -0.07152   0.00401   0.00697   0.00523
  49        3S         -0.07152  -0.05174   0.00312   0.00605   0.00565
  50        4PX         0.00401   0.00312  -0.00016  -0.00032  -0.00030
  51        4PY         0.00697   0.00605  -0.00032  -0.00051  -0.00056
  52        4PZ        -0.00523  -0.00565   0.00030   0.00056   0.00027
  53 6   H  1S         -0.00660  -0.01054   0.00054  -0.00000   0.00141
  54        2S         -0.00340  -0.01416   0.00107  -0.00046   0.00110
  55        3S         -0.00477  -0.00669   0.00049  -0.00006   0.00066
  56        4PX        -0.00163  -0.00344   0.00003   0.00001   0.00035
  57        4PY        -0.00134  -0.00217  -0.00024   0.00010   0.00015
  58        4PZ        -0.00509  -0.00622   0.00007   0.00046   0.00064
                          41        42        43        44        45
  41 4   H  1S          0.07115
  42        2S          0.14117   0.28559
  43        3S          0.06546   0.13670   0.07575
  44        4PX        -0.00545  -0.01095  -0.00561   0.00045
  45        4PY         0.01566   0.03191   0.01533  -0.00120   0.00364
  46        4PZ        -0.00000  -0.00000   0.00000  -0.00000  -0.00000
  47 5   H  1S         -0.00977  -0.02679  -0.02280   0.00141  -0.00222
  48        2S         -0.02580  -0.06534  -0.05159   0.00328  -0.00605
  49        3S         -0.02499  -0.05932  -0.03998   0.00253  -0.00666
  50        4PX         0.00139   0.00321   0.00173  -0.00012   0.00030
  51        4PY        -0.00022   0.00021   0.00112  -0.00005  -0.00005
  52        4PZ        -0.00266  -0.00698  -0.00580   0.00035  -0.00067
  53 6   H  1S          0.00827   0.02919   0.01738  -0.00041   0.00443
  54        2S          0.01864   0.05426   0.02324  -0.00071   0.00772
  55        3S          0.01148   0.02739   0.01197  -0.00068   0.00344
  56        4PX         0.00140   0.00561   0.00456  -0.00012   0.00094
  57        4PY        -0.00222  -0.00509   0.00049  -0.00002  -0.00055
  58        4PZ        -0.00000  -0.00000  -0.00000   0.00000  -0.00000
                          46        47        48        49        50
  46        4PZ         0.00005
  47 5   H  1S         -0.00143   0.07108
  48        2S         -0.00314   0.14124   0.28784
  49        3S         -0.00213   0.07860   0.16951   0.11624
  50        4PX         0.00012  -0.00542  -0.01080  -0.00613   0.00046
  51        4PY         0.00020  -0.00792  -0.01632  -0.00970   0.00060
  52        4PZ        -0.00029   0.01356   0.02784   0.01668  -0.00101
  53 6   H  1S         -0.00000  -0.00147  -0.00660  -0.01054   0.00054
  54        2S         -0.00000   0.00020  -0.00340  -0.01416   0.00107
  55        3S         -0.00000  -0.00183  -0.00477  -0.00669   0.00049
  56        4PX        -0.00000  -0.00026  -0.00163  -0.00344   0.00003
  57        4PY         0.00000  -0.00050  -0.00134  -0.00217  -0.00024
  58        4PZ        -0.00013   0.00116   0.00509   0.00622  -0.00007
                          51        52        53        54        55
  51        4PY         0.00099
  52        4PZ        -0.00157   0.00275
  53 6   H  1S         -0.00000  -0.00141   0.08224
  54        2S         -0.00046  -0.00110   0.10633   0.14897
  55        3S         -0.00006  -0.00066   0.02604   0.03841   0.01076
  56        4PX         0.00001  -0.00035   0.01415   0.01794   0.00439
  57        4PY         0.00010  -0.00015  -0.01448  -0.02030  -0.00509
  58        4PZ        -0.00046   0.00064  -0.00000  -0.00000   0.00000
                          56        57        58
  56        4PX         0.00282
  57        4PY        -0.00161   0.00464
  58        4PZ        -0.00000   0.00000   0.00181
    Full Mulliken population analysis:
                           1         2         3         4         5
   1 1   Si 1S          0.37763
   2        2S          0.45186   1.03253
   3        3S         -0.02667  -0.18669   0.63299
   4        4S         -0.01636  -0.12252   0.59236   0.80883
   5        5S          0.00050   0.00422  -0.03883  -0.13543   0.56523
   6        6S          0.00025   0.00219  -0.01807  -0.05101   0.17470
   7        7PX         0.00000   0.00000   0.00000   0.00000   0.00000
   8        7PY         0.00000   0.00000   0.00000   0.00000   0.00000
   9        7PZ         0.00000   0.00000   0.00000   0.00000   0.00000
  10        8PX         0.00000   0.00000   0.00000   0.00000   0.00000
  11        8PY         0.00000   0.00000   0.00000   0.00000   0.00000
  12        8PZ         0.00000   0.00000   0.00000   0.00000   0.00000
  13        9PX         0.00000   0.00000   0.00000   0.00000   0.00000
  14        9PY         0.00000   0.00000   0.00000   0.00000   0.00000
  15        9PZ         0.00000   0.00000   0.00000   0.00000   0.00000
  16       10PX         0.00000   0.00000   0.00000   0.00000   0.00000
  17       10PY         0.00000   0.00000   0.00000   0.00000   0.00000
  18       10PZ         0.00000   0.00000   0.00000   0.00000   0.00000
  19       11PX         0.00000   0.00000   0.00000   0.00000   0.00000
  20       11PY         0.00000   0.00000   0.00000   0.00000   0.00000
  21       11PZ         0.00000   0.00000   0.00000   0.00000   0.00000
  22 2   O  1S         -0.00000  -0.00000   0.00000   0.00000  -0.00009
  23        2S          0.00000   0.00000  -0.00000   0.00000  -0.00014
  24        2PX         0.00000   0.00000  -0.00000  -0.00001   0.00296
  25        2PY         0.00000   0.00000  -0.00000  -0.00000   0.00004
  26        2PZ         0.00000   0.00000   0.00000   0.00000   0.00000
  27        3S          0.00000   0.00000  -0.00000  -0.00005   0.00220
  28        3PX         0.00000   0.00000  -0.00010  -0.00099   0.01994
  29        3PY         0.00000   0.00000  -0.00000  -0.00002   0.00026
  30        3PZ         0.00000   0.00000   0.00000   0.00000   0.00000
  31        4S          0.00000   0.00000   0.00000  -0.00004   0.00040
  32        4PX         0.00004   0.00031  -0.00269  -0.00904   0.04306
  33        4PY         0.00000   0.00001  -0.00013  -0.00042   0.00180
  34        4PZ         0.00000   0.00000   0.00000   0.00000   0.00000
  35 3   H  1S          0.00000   0.00000  -0.00001  -0.00021   0.00918
  36        2S          0.00002   0.00017  -0.00158  -0.00572   0.03828
  37        3S         -0.00000  -0.00000  -0.00005  -0.00094   0.01323
  38        4PX         0.00000   0.00000  -0.00001  -0.00007   0.00042
  39        4PY         0.00000   0.00000  -0.00003  -0.00014   0.00085
  40        4PZ         0.00000   0.00001  -0.00007  -0.00037   0.00224
  41 4   H  1S          0.00000   0.00000  -0.00002  -0.00024   0.01026
  42        2S          0.00002   0.00019  -0.00180  -0.00650   0.04520
  43        3S          0.00001   0.00010  -0.00094  -0.00375   0.02967
  44        4PX         0.00000   0.00000  -0.00002  -0.00008   0.00050
  45        4PY         0.00000   0.00001  -0.00012  -0.00060   0.00375
  46        4PZ         0.00000   0.00000   0.00000   0.00000   0.00000
  47 5   H  1S          0.00000   0.00000  -0.00001  -0.00021   0.00918
  48        2S          0.00002   0.00017  -0.00158  -0.00572   0.03828
  49        3S         -0.00000  -0.00000  -0.00005  -0.00094   0.01323
  50        4PX         0.00000   0.00000  -0.00001  -0.00007   0.00042
  51        4PY         0.00000   0.00000  -0.00003  -0.00014   0.00085
  52        4PZ         0.00000   0.00001  -0.00007  -0.00037   0.00224
  53 6   H  1S         -0.00000  -0.00000   0.00000   0.00000  -0.00035
  54        2S         -0.00000  -0.00000   0.00002   0.00012  -0.00373
  55        3S         -0.00000  -0.00002   0.00013   0.00041  -0.00249
  56        4PX        -0.00000  -0.00000   0.00000   0.00000  -0.00002
  57        4PY        -0.00000  -0.00000   0.00000   0.00000  -0.00017
  58        4PZ         0.00000   0.00000   0.00000   0.00000   0.00000
                           6         7         8         9        10
   6        6S          0.16183
   7        7PX         0.00000   0.33495
   8        7PY         0.00000   0.00000   0.33733
   9        7PZ         0.00000   0.00000   0.00000   0.33704
  10        8PX         0.00000   0.32183   0.00000   0.00000   0.97729
  11        8PY         0.00000   0.00000   0.32376   0.00000   0.00000
  12        8PZ         0.00000   0.00000   0.00000   0.32350   0.00000
  13        9PX         0.00000   0.00289   0.00000   0.00000   0.02291
  14        9PY         0.00000   0.00000   0.00249   0.00000   0.00000
  15        9PZ         0.00000   0.00000   0.00000   0.00255   0.00000
  16       10PX         0.00000  -0.00077   0.00000   0.00000  -0.00868
  17       10PY         0.00000   0.00000  -0.00147   0.00000   0.00000
  18       10PZ         0.00000   0.00000   0.00000  -0.00143   0.00000
  19       11PX         0.00000  -0.00003   0.00000   0.00000  -0.00040
  20       11PY         0.00000   0.00000  -0.00007   0.00000   0.00000
  21       11PZ         0.00000   0.00000   0.00000  -0.00006   0.00000
  22 2   O  1S          0.00096   0.00000   0.00000   0.00000   0.00000
  23        2S          0.00154  -0.00000  -0.00000   0.00000   0.00000
  24        2PX        -0.00081  -0.00000  -0.00000   0.00000  -0.00002
  25        2PY         0.00003  -0.00000  -0.00000   0.00000  -0.00000
  26        2PZ         0.00000   0.00000   0.00000  -0.00000   0.00000
  27        3S         -0.02392  -0.00000  -0.00000   0.00000  -0.00023
  28        3PX        -0.00535  -0.00004  -0.00000   0.00000  -0.00151
  29        3PY         0.00016  -0.00000  -0.00000   0.00000  -0.00003
  30        3PZ         0.00000   0.00000   0.00000  -0.00000   0.00000
  31        4S         -0.07035  -0.00023  -0.00000   0.00000  -0.00331
  32        4PX        -0.02369  -0.00067  -0.00000   0.00000  -0.00810
  33        4PY         0.00035  -0.00003  -0.00001   0.00000  -0.00035
  34        4PZ         0.00000   0.00000   0.00000  -0.00003   0.00000
  35 3   H  1S          0.00884  -0.00000  -0.00000  -0.00000  -0.00003
  36        2S          0.03614  -0.00004  -0.00010  -0.00028  -0.00052
  37        3S          0.01031  -0.00001  -0.00004  -0.00013  -0.00014
  38        4PX         0.00011  -0.00000  -0.00000  -0.00000   0.00000
  39        4PY         0.00037  -0.00000  -0.00000  -0.00001  -0.00002
  40        4PZ         0.00103  -0.00000  -0.00001  -0.00001  -0.00006
  41 4   H  1S          0.00829  -0.00000  -0.00000   0.00000  -0.00004
  42        2S          0.03595  -0.00005  -0.00039   0.00000  -0.00063
  43        3S          0.01261  -0.00000  -0.00015   0.00000  -0.00000
  44        4PX         0.00011  -0.00000  -0.00001   0.00000  -0.00000
  45        4PY         0.00150  -0.00001  -0.00003   0.00000  -0.00010
  46        4PZ         0.00000   0.00000   0.00000  -0.00000   0.00000
  47 5   H  1S          0.00884  -0.00000  -0.00000  -0.00000  -0.00003
  48        2S          0.03614  -0.00004  -0.00010  -0.00028  -0.00052
  49        3S          0.01031  -0.00001  -0.00004  -0.00013  -0.00014
  50        4PX         0.00011  -0.00000  -0.00000  -0.00000   0.00000
  51        4PY         0.00037  -0.00000  -0.00000  -0.00001  -0.00002
  52        4PZ         0.00103  -0.00000  -0.00001  -0.00001  -0.00006
  53 6   H  1S          0.00042   0.00000  -0.00000   0.00000   0.00000
  54        2S          0.00564   0.00001  -0.00000   0.00000   0.00017
  55        3S          0.00441   0.00002   0.00000   0.00000   0.00021
  56        4PX         0.00022   0.00000  -0.00000   0.00000   0.00000
  57        4PY         0.00000   0.00000   0.00000   0.00000   0.00000
  58        4PZ         0.00000   0.00000   0.00000  -0.00000   0.00000
                          11        12        13        14        15
  11        8PY         0.98204
  12        8PZ         0.00000   0.98132
  13        9PX         0.00000   0.00000   0.06742
  14        9PY         0.02015   0.00000   0.00000   0.06944
  15        9PZ         0.00000   0.02066   0.00000   0.00000   0.06786
  16       10PX         0.00000   0.00000   0.02450   0.00000   0.00000
  17       10PY        -0.01638   0.00000   0.00000   0.06066   0.00000
  18       10PZ         0.00000  -0.01602   0.00000   0.00000   0.05911
  19       11PX         0.00000   0.00000   0.00521   0.00000   0.00000
  20       11PY        -0.00095   0.00000   0.00000   0.00750   0.00000
  21       11PZ         0.00000  -0.00075   0.00000   0.00000   0.00598
  22 2   O  1S          0.00000   0.00000  -0.00013  -0.00000   0.00000
  23        2S          0.00000   0.00000  -0.00021  -0.00000   0.00000
  24        2PX        -0.00000   0.00000   0.00304   0.00002   0.00000
  25        2PY        -0.00000   0.00000   0.00004   0.00002   0.00000
  26        2PZ         0.00000  -0.00000   0.00000   0.00000   0.00005
  27        3S         -0.00000   0.00000   0.00586   0.00007   0.00000
  28        3PX        -0.00001   0.00000   0.02189   0.00013   0.00000
  29        3PY        -0.00002   0.00000   0.00037   0.00024   0.00000
  30        3PZ         0.00000  -0.00003   0.00000   0.00000   0.00057
  31        4S         -0.00002   0.00000   0.02421   0.00006   0.00000
  32        4PX        -0.00002   0.00000   0.04109   0.00032   0.00000
  33        4PY        -0.00014   0.00000   0.00181  -0.00004   0.00000
  34        4PZ         0.00000  -0.00039   0.00000   0.00000   0.00122
  35 3   H  1S         -0.00008  -0.00022   0.00080   0.00192   0.00532
  36        2S         -0.00132  -0.00367   0.00356   0.00883   0.02478
  37        3S         -0.00054  -0.00159   0.00077   0.00345   0.01032
  38        4PX        -0.00002  -0.00007   0.00001   0.00016   0.00048
  39        4PY        -0.00001  -0.00014   0.00015   0.00002   0.00096
  40        4PZ        -0.00014  -0.00027   0.00044   0.00097   0.00153
  41 4   H  1S         -0.00032   0.00000   0.00099   0.00745   0.00000
  42        2S         -0.00517   0.00000   0.00428   0.03433   0.00000
  43        3S         -0.00194   0.00000  -0.00022   0.01234   0.00000
  44        4PX        -0.00010   0.00000  -0.00001   0.00068   0.00000
  45        4PY        -0.00057   0.00000   0.00067   0.00332   0.00000
  46        4PZ         0.00000  -0.00001   0.00000   0.00000   0.00014
  47 5   H  1S         -0.00008  -0.00022   0.00080   0.00192   0.00532
  48        2S         -0.00132  -0.00367   0.00356   0.00883   0.02478
  49        3S         -0.00054  -0.00159   0.00077   0.00345   0.01032
  50        4PX        -0.00002  -0.00007   0.00001   0.00016   0.00048
  51        4PY        -0.00001  -0.00014   0.00015   0.00002   0.00096
  52        4PZ        -0.00014  -0.00027   0.00044   0.00097   0.00153
  53 6   H  1S         -0.00000   0.00000  -0.00009   0.00000   0.00000
  54        2S         -0.00000   0.00000  -0.00273  -0.00004   0.00000
  55        3S          0.00003   0.00000  -0.00199  -0.00027   0.00000
  56        4PX        -0.00000   0.00000  -0.00005   0.00001   0.00000
  57        4PY         0.00000   0.00000  -0.00010   0.00000   0.00000
  58        4PZ         0.00000  -0.00000   0.00000   0.00000   0.00000
                          16        17        18        19        20
  16       10PX         0.02877
  17       10PY         0.00000   0.11706
  18       10PZ         0.00000   0.00000   0.11556
  19       11PX         0.00677   0.00000   0.00000   0.00546
  20       11PY         0.00000   0.02803   0.00000   0.00000   0.02173
  21       11PZ         0.00000   0.00000   0.02545   0.00000   0.00000
  22 2   O  1S          0.00037  -0.00002   0.00000  -0.00018  -0.00003
  23        2S          0.00057  -0.00003   0.00000  -0.00031  -0.00005
  24        2PX         0.00278  -0.00006   0.00000   0.00010  -0.00006
  25        2PY         0.00015   0.00076   0.00000  -0.00001   0.00082
  26        2PZ         0.00000   0.00000   0.00121   0.00000   0.00000
  27        3S         -0.00906   0.00050   0.00000   0.00454   0.00098
  28        3PX         0.01424  -0.00033   0.00000   0.00049  -0.00035
  29        3PY         0.00085   0.00481   0.00000  -0.00006   0.00510
  30        3PZ         0.00000   0.00000   0.00751   0.00000   0.00000
  31        4S          0.00091   0.00072   0.00000   0.01664   0.00169
  32        4PX         0.02454  -0.00084   0.00000   0.00019  -0.00110
  33        4PY         0.00277   0.01260   0.00000  -0.00004   0.01944
  34        4PZ         0.00000   0.00000   0.02192   0.00000   0.00000
  35 3   H  1S          0.00154   0.00563   0.01515   0.00026   0.00089
  36        2S          0.00523   0.01993   0.05355   0.00086   0.00308
  37        3S          0.00214   0.00821   0.02396  -0.00034  -0.00013
  38        4PX        -0.00001   0.00022   0.00060   0.00002   0.00002
  39        4PY         0.00012  -0.00017   0.00108   0.00001  -0.00004
  40        4PZ         0.00036   0.00116   0.00090   0.00002   0.00005
  41 4   H  1S          0.00209   0.02160   0.00000   0.00111   0.00399
  42        2S          0.00642   0.07832   0.00000   0.00483   0.01530
  43        3S          0.00002   0.03111   0.00000   0.00193   0.00463
  44        4PX        -0.00008   0.00084   0.00000  -0.00009   0.00005
  45        4PY         0.00049   0.00268   0.00000   0.00014  -0.00007
  46        4PZ         0.00000   0.00000   0.00032   0.00000   0.00000
  47 5   H  1S          0.00154   0.00563   0.01515   0.00026   0.00089
  48        2S          0.00523   0.01993   0.05355   0.00086   0.00308
  49        3S          0.00214   0.00821   0.02396  -0.00034  -0.00013
  50        4PX        -0.00001   0.00022   0.00060   0.00002   0.00002
  51        4PY         0.00012  -0.00017   0.00108   0.00001  -0.00004
  52        4PZ         0.00036   0.00116   0.00090   0.00002   0.00005
  53 6   H  1S         -0.00097   0.00029   0.00000  -0.00151   0.00043
  54        2S         -0.00592   0.00050   0.00000  -0.00697   0.00064
  55        3S         -0.00266  -0.00071   0.00000  -0.00334  -0.00019
  56        4PX         0.00001   0.00022   0.00000  -0.00010   0.00017
  57        4PY        -0.00043   0.00005   0.00000  -0.00010   0.00024
  58        4PZ         0.00000   0.00000   0.00019   0.00000   0.00000
                          21        22        23        24        25
  21       11PZ         0.02245
  22 2   O  1S          0.00000   0.63863
  23        2S          0.00000   0.51173   0.52048
  24        2PX         0.00000   0.00000   0.00000   0.13099
  25        2PY         0.00000   0.00000   0.00000   0.00000   0.13982
  26        2PZ         0.00126   0.00000   0.00000   0.00000   0.00000
  27        3S          0.00000  -0.04487  -0.08611   0.00000   0.00000
  28        3PX         0.00000   0.00000   0.00000   0.11621   0.00000
  29        3PY         0.00000   0.00000   0.00000   0.00000   0.11947
  30        3PZ         0.00783   0.00000   0.00000   0.00000   0.00000
  31        4S          0.00000  -0.02098  -0.03545   0.00000   0.00000
  32        4PX         0.00000   0.00000   0.00000   0.03362   0.00000
  33        4PY         0.00000   0.00000   0.00000   0.00000   0.03695
  34        4PZ         0.03032   0.00000   0.00000   0.00000   0.00000
  35 3   H  1S          0.00153   0.00000  -0.00000  -0.00000  -0.00000
  36        2S          0.00327   0.00000   0.00000  -0.00001  -0.00000
  37        3S         -0.00257  -0.00006  -0.00011  -0.00014  -0.00012
  38        4PX         0.00003  -0.00000  -0.00000   0.00000   0.00000
  39        4PY         0.00000   0.00000   0.00000  -0.00000  -0.00000
  40        4PZ        -0.00000   0.00000   0.00000  -0.00000  -0.00000
  41 4   H  1S          0.00000   0.00000   0.00000  -0.00000  -0.00000
  42        2S          0.00000   0.00000   0.00000  -0.00001  -0.00002
  43        3S          0.00000   0.00002   0.00005   0.00019  -0.00023
  44        4PX         0.00000  -0.00000  -0.00000   0.00000  -0.00000
  45        4PY         0.00000   0.00000   0.00000  -0.00000  -0.00000
  46        4PZ        -0.00000   0.00000   0.00000   0.00000   0.00000
  47 5   H  1S          0.00153   0.00000  -0.00000  -0.00000  -0.00000
  48        2S          0.00327   0.00000   0.00000  -0.00001  -0.00000
  49        3S         -0.00257  -0.00006  -0.00011  -0.00014  -0.00012
  50        4PX         0.00003  -0.00000  -0.00000   0.00000   0.00000
  51        4PY         0.00000   0.00000   0.00000  -0.00000  -0.00000
  52        4PZ        -0.00000   0.00000   0.00000  -0.00000  -0.00000
  53 6   H  1S          0.00000  -0.00023  -0.00033   0.00195   0.00495
  54        2S          0.00000  -0.00061  -0.00100   0.00477   0.00793
  55        3S          0.00000   0.00003   0.00003   0.00039   0.00058
  56        4PX         0.00000  -0.00006  -0.00008   0.00003   0.00239
  57        4PY         0.00000  -0.00060  -0.00097   0.00264   0.00026
  58        4PZ         0.00042   0.00000   0.00000   0.00000   0.00000
                          26        27        28        29        30
  26        2PZ         0.17297
  27        3S          0.00000   0.65040
  28        3PX         0.00000   0.00000   0.27578
  29        3PY         0.00000   0.00000   0.00000   0.27289
  30        3PZ         0.14883   0.00000   0.00000   0.00000   0.34195
  31        4S          0.00000   0.43622   0.00000   0.00000   0.00000
  32        4PX         0.00000   0.00000   0.15499   0.00000   0.00000
  33        4PY         0.00000   0.00000   0.00000   0.16405   0.00000
  34        4PZ         0.05338   0.00000   0.00000   0.00000   0.23778
  35 3   H  1S         -0.00000  -0.00000  -0.00000  -0.00000  -0.00000
  36        2S         -0.00001  -0.00002  -0.00018  -0.00006  -0.00018
  37        3S         -0.00028   0.00212  -0.00088  -0.00076  -0.00182
  38        4PX        -0.00000  -0.00000   0.00000   0.00000  -0.00000
  39        4PY        -0.00000  -0.00000  -0.00000  -0.00000  -0.00000
  40        4PZ        -0.00000  -0.00000  -0.00000  -0.00000  -0.00000
  41 4   H  1S          0.00000  -0.00000  -0.00000  -0.00000   0.00000
  42        2S          0.00000  -0.00016  -0.00018  -0.00020   0.00000
  43        3S          0.00000  -0.00114   0.00130  -0.00144   0.00000
  44        4PX         0.00000  -0.00000   0.00000  -0.00000   0.00000
  45        4PY         0.00000  -0.00000  -0.00000  -0.00000   0.00000
  46        4PZ        -0.00000   0.00000   0.00000   0.00000  -0.00000
  47 5   H  1S         -0.00000  -0.00000  -0.00000  -0.00000  -0.00000
  48        2S         -0.00001  -0.00002  -0.00018  -0.00006  -0.00018
  49        3S         -0.00028   0.00212  -0.00088  -0.00076  -0.00182
  50        4PX        -0.00000  -0.00000   0.00000   0.00000  -0.00000
  51        4PY        -0.00000  -0.00000  -0.00000  -0.00000  -0.00000
  52        4PZ        -0.00000  -0.00000  -0.00000  -0.00000  -0.00000
  53 6   H  1S          0.00000   0.01236   0.01228   0.03034   0.00000
  54        2S          0.00000   0.01638   0.02388   0.03752   0.00000
  55        3S          0.00000   0.00049   0.00234   0.00324   0.00000
  56        4PX         0.00000   0.00080  -0.00036   0.00793   0.00000
  57        4PY         0.00000   0.01151   0.00891   0.00060   0.00000
  58        4PZ         0.00129   0.00000   0.00000   0.00000   0.00632
                          31        32        33        34        35
  31        4S          0.58624
  32        4PX         0.00000   0.23167
  33        4PY         0.00000   0.00000   0.26892
  34        4PZ         0.00000   0.00000   0.00000   0.42483
  35 3   H  1S         -0.00005  -0.00026  -0.00008  -0.00017   0.07108
  36        2S         -0.00067  -0.00339  -0.00122  -0.00352   0.09977
  37        3S          0.00622  -0.00480  -0.00384  -0.00978   0.02937
  38        4PX         0.00000   0.00004   0.00000  -0.00004   0.00000
  39        4PY        -0.00001  -0.00005  -0.00000  -0.00007   0.00000
  40        4PZ        -0.00002  -0.00014  -0.00006  -0.00007   0.00000
  41 4   H  1S         -0.00021  -0.00024  -0.00012   0.00000  -0.00000
  42        2S         -0.00390  -0.00223  -0.00262   0.00000  -0.00009
  43        3S         -0.00630   0.00575  -0.00697   0.00000  -0.00116
  44        4PX        -0.00003   0.00007  -0.00008   0.00000  -0.00000
  45        4PY        -0.00017  -0.00010  -0.00009   0.00000  -0.00000
  46        4PZ         0.00000   0.00000   0.00000  -0.00002   0.00000
  47 5   H  1S         -0.00005  -0.00026  -0.00008  -0.00017  -0.00000
  48        2S         -0.00067  -0.00339  -0.00122  -0.00352  -0.00010
  49        3S          0.00622  -0.00480  -0.00384  -0.00978  -0.00156
  50        4PX         0.00000   0.00004   0.00000  -0.00004   0.00000
  51        4PY        -0.00001  -0.00005  -0.00000  -0.00007   0.00000
  52        4PZ        -0.00002  -0.00014  -0.00006  -0.00007  -0.00000
  53 6   H  1S          0.00074   0.01095   0.03210   0.00000  -0.00000
  54        2S         -0.03509   0.03250   0.04746   0.00000   0.00000
  55        3S         -0.01682   0.00523   0.00654   0.00000  -0.00004
  56        4PX        -0.00143  -0.00041   0.00470   0.00000  -0.00000
  57        4PY         0.00429   0.00504   0.00020   0.00000  -0.00000
  58        4PZ         0.00000   0.00000   0.00000   0.01042  -0.00000
                          36        37        38        39        40
  36        2S          0.28784
  37        3S          0.13373   0.11624
  38        4PX         0.00000   0.00000   0.00046
  39        4PY         0.00000   0.00000   0.00000   0.00099
  40        4PZ         0.00000   0.00000   0.00000   0.00000   0.00275
  41 4   H  1S         -0.00008  -0.00128   0.00000   0.00000  -0.00000
  42        2S         -0.00214  -0.00908   0.00000  -0.00000  -0.00006
  43        3S         -0.00790  -0.01360   0.00000  -0.00007  -0.00022
  44        4PX        -0.00000  -0.00000  -0.00000  -0.00000  -0.00000
  45        4PY        -0.00009  -0.00044   0.00000   0.00000  -0.00000
  46        4PZ         0.00003   0.00008  -0.00000   0.00000   0.00000
  47 5   H  1S         -0.00010  -0.00156   0.00000   0.00000  -0.00000
  48        2S         -0.00277  -0.01127   0.00000   0.00000  -0.00010
  49        3S         -0.01127  -0.01794   0.00000   0.00000  -0.00044
  50        4PX         0.00000   0.00000  -0.00000   0.00000   0.00000
  51        4PY         0.00000   0.00000   0.00000  -0.00000   0.00000
  52        4PZ        -0.00010  -0.00044   0.00000   0.00000  -0.00000
  53 6   H  1S         -0.00000  -0.00022  -0.00000   0.00000  -0.00000
  54        2S         -0.00002  -0.00102  -0.00000   0.00000  -0.00000
  55        3S         -0.00034  -0.00138  -0.00002   0.00000  -0.00001
  56        4PX        -0.00000  -0.00012  -0.00000  -0.00000  -0.00000
  57        4PY        -0.00000  -0.00000   0.00000   0.00000  -0.00000
  58        4PZ        -0.00001  -0.00010  -0.00000  -0.00000  -0.00000
                          41        42        43        44        45
  41 4   H  1S          0.07115
  42        2S          0.09972   0.28559
  43        3S          0.02446   0.10785   0.07575
  44        4PX         0.00000   0.00000   0.00000   0.00045
  45        4PY         0.00000   0.00000   0.00000   0.00000   0.00364
  46        4PZ         0.00000   0.00000   0.00000   0.00000   0.00000
  47 5   H  1S         -0.00000  -0.00009  -0.00116  -0.00000  -0.00000
  48        2S         -0.00008  -0.00214  -0.00790  -0.00000  -0.00009
  49        3S         -0.00128  -0.00908  -0.01360  -0.00000  -0.00044
  50        4PX         0.00000   0.00000   0.00000  -0.00000   0.00000
  51        4PY         0.00000  -0.00000  -0.00007  -0.00000   0.00000
  52        4PZ        -0.00000  -0.00006  -0.00022  -0.00000  -0.00000
  53 6   H  1S          0.00000   0.00000   0.00013   0.00000   0.00000
  54        2S          0.00000   0.00007   0.00074   0.00000   0.00000
  55        3S          0.00009   0.00088   0.00145   0.00001   0.00004
  56        4PX         0.00000   0.00000   0.00006   0.00000   0.00000
  57        4PY         0.00000   0.00000  -0.00001  -0.00000   0.00000
  58        4PZ         0.00000   0.00000   0.00000   0.00000   0.00000
                          46        47        48        49        50
  46        4PZ         0.00005
  47 5   H  1S          0.00000   0.07108
  48        2S          0.00003   0.09977   0.28784
  49        3S          0.00008   0.02937   0.13373   0.11624
  50        4PX        -0.00000   0.00000   0.00000   0.00000   0.00046
  51        4PY         0.00000   0.00000   0.00000   0.00000   0.00000
  52        4PZ         0.00000   0.00000   0.00000   0.00000   0.00000
  53 6   H  1S          0.00000  -0.00000  -0.00000  -0.00022  -0.00000
  54        2S          0.00000   0.00000  -0.00002  -0.00102  -0.00000
  55        3S          0.00000  -0.00004  -0.00034  -0.00138  -0.00002
  56        4PX         0.00000  -0.00000  -0.00000  -0.00012  -0.00000
  57        4PY         0.00000  -0.00000  -0.00000  -0.00000   0.00000
  58        4PZ        -0.00000  -0.00000  -0.00001  -0.00010  -0.00000
                          51        52        53        54        55
  51        4PY         0.00099
  52        4PZ         0.00000   0.00275
  53 6   H  1S          0.00000  -0.00000   0.08224
  54        2S          0.00000  -0.00000   0.07511   0.14897
  55        3S          0.00000  -0.00001   0.00973   0.03031   0.01076
  56        4PX        -0.00000  -0.00000   0.00000   0.00000   0.00000
  57        4PY         0.00000  -0.00000   0.00000   0.00000   0.00000
  58        4PZ        -0.00000  -0.00000   0.00000   0.00000   0.00000
                          56        57        58
  56        4PX         0.00282
  57        4PY         0.00000   0.00464
  58        4PZ         0.00000   0.00000   0.00181
     Gross orbital populations:
                           1
   1 1   Si 1S          0.78732
   2        2S          1.18254
   3        3S          0.94593
   4        4S          1.03979
   5        5S          0.85182
   6        6S          0.33155
   7        7PX         0.65776
   8        7PY         0.66115
   9        7PZ         0.66072
  10        8PX         1.29745
  11        8PY         1.29610
  12        8PZ         1.29638
  13        9PX         0.23311
  14        9PY         0.24962
  15        9PZ         0.24493
  16       10PX         0.10643
  17       10PY         0.41088
  18       10PZ         0.40432
  19       11PX         0.03591
  20       11PY         0.11560
  21       11PZ         0.09742
  22 2   O  1S          1.08381
  23        2S          0.90951
  24        2PX         0.29842
  25        2PY         0.31371
  26        2PZ         0.37841
  27        3S          0.98093
  28        3PX         0.64105
  29        3PY         0.64442
  30        3PZ         0.74675
  31        4S          0.88873
  32        4PX         0.52302
  33        4PY         0.57829
  34        4PZ         0.75212
  35 3   H  1S          0.24720
  36        2S          0.67174
  37        3S          0.27267
  38        4PX         0.00233
  39        4PY         0.00378
  40        4PZ         0.00940
  41 4   H  1S          0.24728
  42        2S          0.67234
  43        3S          0.24120
  44        4PX         0.00223
  45        4PY         0.01333
  46        4PZ         0.00070
  47 5   H  1S          0.24720
  48        2S          0.67174
  49        3S          0.27267
  50        4PX         0.00233
  51        4PY         0.00378
  52        4PZ         0.00940
  53 6   H  1S          0.27013
  54        2S          0.37452
  55        3S          0.04527
  56        4PX         0.01659
  57        4PY         0.03601
  58        4PZ         0.02025
          Condensed to atoms (all electrons):
               1          2          3          4          5          6
     1  Si  11.739719   0.195725   0.313527   0.364219   0.313527  -0.019976
     2  O    0.195725   8.307175  -0.024478  -0.019089  -0.024478   0.304314
     3  H    0.313527  -0.024478   1.005111  -0.036110  -0.047647  -0.003282
     4  H    0.364219  -0.019089  -0.036110   0.900705  -0.036110   0.003469
     5  H    0.313527  -0.024478  -0.047647  -0.036110   1.005111  -0.003282
     6  H   -0.019976   0.304314  -0.003282   0.003469  -0.003282   0.481521
 Mulliken charges:
               1
     1  Si   1.093260
     2  O   -0.739169
     3  H   -0.207121
     4  H   -0.177085
     5  H   -0.207121
     6  H    0.237235
 Sum of Mulliken charges =  -0.00000
 Mulliken charges with hydrogens summed into heavy atoms:
               1
     1  Si   0.501934
     2  O   -0.501934

 Bonding Mulliken population analysis:
      Bonding Density Matrix:
                           1         2         3         4         5
   1 1   Si 1S          0.00000
   2        2S          0.00000   0.00000
   3        3S          0.00000   0.00000   0.00000
   4        4S          0.00000   0.00000   0.00000   0.00000
   5        5S          0.00000   0.00000   0.00000   0.00000   0.00000
   6        6S          0.00000   0.00000   0.00000   0.00000   0.00000
   7        7PX         0.00000   0.00000   0.00000   0.00000   0.00000
   8        7PY         0.00000   0.00000   0.00000   0.00000   0.00000
   9        7PZ         0.00000   0.00000   0.00000   0.00000   0.00000
  10        8PX         0.00000   0.00000   0.00000   0.00000   0.00000
  11        8PY         0.00000   0.00000   0.00000   0.00000   0.00000
  12        8PZ         0.00000   0.00000   0.00000   0.00000   0.00000
  13        9PX         0.00000   0.00000   0.00000   0.00000   0.00000
  14        9PY         0.00000   0.00000   0.00000   0.00000   0.00000
  15        9PZ         0.00000   0.00000   0.00000   0.00000   0.00000
  16       10PX         0.00000   0.00000   0.00000   0.00000   0.00000
  17       10PY         0.00000   0.00000   0.00000   0.00000   0.00000
  18       10PZ         0.00000   0.00000   0.00000   0.00000   0.00000
  19       11PX         0.00000   0.00000   0.00000   0.00000   0.00000
  20       11PY         0.00000   0.00000   0.00000   0.00000   0.00000
  21       11PZ         0.00000   0.00000   0.00000   0.00000   0.00000
  22 2   O  1S         -0.00042  -0.00112   0.00221   0.00352  -0.00642
  23        2S         -0.00067  -0.00177   0.00347   0.00559  -0.00992
  24        2PX         0.00459   0.01256  -0.02831  -0.04718   0.09782
  25        2PY         0.00084   0.00235  -0.00563  -0.00813   0.01336
  26        2PZ         0.00000   0.00000  -0.00000  -0.00000  -0.00000
  27        3S          0.00161   0.00421  -0.00778  -0.01271   0.02104
  28        3PX         0.00683   0.01876  -0.04242  -0.07045   0.14502
  29        3PY         0.00126   0.00351  -0.00842  -0.01237   0.02095
  30        3PZ        -0.00000  -0.00000   0.00000   0.00000  -0.00000
  31        4S          0.00023   0.00063   0.00010  -0.00056   0.00143
  32        4PX         0.00475   0.01311  -0.02933  -0.04786   0.09635
  33        4PY         0.00247   0.00689  -0.01599  -0.02442   0.04423
  34        4PZ         0.00000   0.00000  -0.00000  -0.00000  -0.00000
  35 3   H  1S          0.00415   0.01136  -0.02596  -0.04200   0.07852
  36        2S          0.00703   0.01947  -0.04433  -0.06949   0.12078
  37        3S         -0.00003  -0.00023  -0.00060  -0.00575   0.02755
  38        4PX        -0.00035  -0.00099   0.00228   0.00345  -0.00557
  39        4PY        -0.00047  -0.00136   0.00317   0.00482  -0.00787
  40        4PZ        -0.00077  -0.00219   0.00510   0.00776  -0.01253
  41 4   H  1S          0.00439   0.01203  -0.02754  -0.04444   0.08579
  42        2S          0.00771   0.02134  -0.04888  -0.07668   0.14039
  43        3S          0.00170   0.00455  -0.01156  -0.02268   0.06128
  44        4PX        -0.00036  -0.00104   0.00241   0.00365  -0.00616
  45        4PY         0.00102   0.00290  -0.00680  -0.01040   0.01787
  46        4PZ         0.00000   0.00000  -0.00000  -0.00000   0.00000
  47 5   H  1S          0.00415   0.01136  -0.02596  -0.04200   0.07852
  48        2S          0.00703   0.01947  -0.04433  -0.06949   0.12078
  49        3S         -0.00003  -0.00023  -0.00060  -0.00575   0.02755
  50        4PX        -0.00035  -0.00099   0.00228   0.00345  -0.00557
  51        4PY        -0.00047  -0.00136   0.00317   0.00482  -0.00787
  52        4PZ         0.00077   0.00219  -0.00510  -0.00776   0.01253
  53 6   H  1S         -0.00108  -0.00294   0.00660   0.01183  -0.02747
  54        2S         -0.00229  -0.00633   0.01423   0.02440  -0.05267
  55        3S         -0.00080  -0.00220   0.00455   0.00686  -0.01114
  56        4PX        -0.00008  -0.00028   0.00061   0.00077  -0.00053
  57        4PY         0.00052   0.00143  -0.00331  -0.00572   0.01278
  58        4PZ        -0.00000  -0.00000   0.00000   0.00000  -0.00000
                           6         7         8         9        10
   6        6S          0.00000
   7        7PX         0.00000   0.00000
   8        7PY         0.00000   0.00000   0.00000
   9        7PZ         0.00000   0.00000   0.00000   0.00000
  10        8PX         0.00000   0.00000   0.00000   0.00000   0.00000
  11        8PY         0.00000   0.00000   0.00000   0.00000   0.00000
  12        8PZ         0.00000   0.00000   0.00000   0.00000   0.00000
  13        9PX         0.00000   0.00000   0.00000   0.00000   0.00000
  14        9PY         0.00000   0.00000   0.00000   0.00000   0.00000
  15        9PZ         0.00000   0.00000   0.00000   0.00000   0.00000
  16       10PX         0.00000   0.00000   0.00000   0.00000   0.00000
  17       10PY         0.00000   0.00000   0.00000   0.00000   0.00000
  18       10PZ         0.00000   0.00000   0.00000   0.00000   0.00000
  19       11PX         0.00000   0.00000   0.00000   0.00000   0.00000
  20       11PY         0.00000   0.00000   0.00000   0.00000   0.00000
  21       11PZ         0.00000   0.00000   0.00000   0.00000   0.00000
  22 2   O  1S          0.03093  -0.00505  -0.00079   0.00000  -0.00956
  23        2S          0.04715  -0.00813  -0.00127   0.00000  -0.01533
  24        2PX        -0.03240   0.02848   0.00072  -0.00000   0.05139
  25        2PY         0.01436   0.00523  -0.00368  -0.00000   0.00883
  26        2PZ         0.00000  -0.00000  -0.00000  -0.00666  -0.00000
  27        3S         -0.12470   0.02148   0.00389  -0.00000   0.04046
  28        3PX        -0.04955   0.04203   0.00136   0.00000   0.07588
  29        3PY         0.01643   0.00887  -0.00578   0.00000   0.01516
  30        3PZ         0.00000  -0.00000  -0.00000  -0.00994  -0.00000
  31        4S         -0.16644   0.03521   0.00239  -0.00000   0.06511
  32        4PX        -0.06566   0.04120   0.00082  -0.00000   0.07421
  33        4PY         0.01057   0.01562  -0.00235  -0.00000   0.02730
  34        4PZ         0.00000  -0.00000  -0.00000  -0.00668  -0.00000
  35 3   H  1S          0.05007  -0.00704  -0.01190  -0.01974  -0.01238
  36        2S          0.08470  -0.01326  -0.02363  -0.03954  -0.02342
  37        3S          0.01524  -0.00505  -0.01325  -0.02367  -0.00872
  38        4PX        -0.00231   0.00012   0.00104   0.00179   0.00018
  39        4PY        -0.00542   0.00087   0.00090   0.00244   0.00154
  40        4PZ        -0.00912   0.00157   0.00253   0.00361   0.00277
  41 4   H  1S          0.04654  -0.00795   0.02330  -0.00000  -0.01397
  42        2S          0.08358  -0.01467   0.04712   0.00000  -0.02597
  43        3S          0.01856  -0.00013   0.02489  -0.00000  -0.00005
  44        4PX        -0.00215   0.00029  -0.00202  -0.00000   0.00048
  45        4PY         0.01147  -0.00190   0.00516   0.00000  -0.00338
  46        4PZ        -0.00000   0.00000   0.00000  -0.00052   0.00000
  47 5   H  1S          0.05007  -0.00704  -0.01190   0.01974  -0.01238
  48        2S          0.08470  -0.01326  -0.02363   0.03954  -0.02342
  49        3S          0.01524  -0.00505  -0.01325   0.02367  -0.00872
  50        4PX        -0.00231   0.00012   0.00104  -0.00179   0.00018
  51        4PY        -0.00542   0.00087   0.00090  -0.00244   0.00154
  52        4PZ         0.00912  -0.00157  -0.00253   0.00361  -0.00277
  53 6   H  1S          0.00600  -0.00578  -0.00123  -0.00000  -0.01057
  54        2S          0.02838  -0.01690  -0.00019   0.00000  -0.03071
  55        3S          0.01091  -0.00455   0.00235   0.00000  -0.00835
  56        4PX         0.00260  -0.00047  -0.00043   0.00000  -0.00089
  57        4PY        -0.00011   0.00324  -0.00045   0.00000   0.00578
  58        4PZ         0.00000  -0.00000  -0.00000  -0.00077  -0.00000
                          11        12        13        14        15
  11        8PY         0.00000
  12        8PZ         0.00000   0.00000
  13        9PX         0.00000   0.00000   0.00000
  14        9PY         0.00000   0.00000   0.00000   0.00000
  15        9PZ         0.00000   0.00000   0.00000   0.00000   0.00000
  16       10PX         0.00000   0.00000   0.00000   0.00000   0.00000
  17       10PY         0.00000   0.00000   0.00000   0.00000   0.00000
  18       10PZ         0.00000   0.00000   0.00000   0.00000   0.00000
  19       11PX         0.00000   0.00000   0.00000   0.00000   0.00000
  20       11PY         0.00000   0.00000   0.00000   0.00000   0.00000
  21       11PZ         0.00000   0.00000   0.00000   0.00000   0.00000
  22 2   O  1S         -0.00145  -0.00000   0.01310   0.00147   0.00000
  23        2S         -0.00235   0.00000   0.02091   0.00241   0.00000
  24        2PX         0.00151  -0.00000  -0.07638  -0.00407   0.00000
  25        2PY        -0.00672  -0.00000  -0.00997   0.00404   0.00000
  26        2PZ        -0.00000  -0.01198   0.00000   0.00000   0.01016
  27        3S          0.00718   0.00000  -0.05409  -0.00736  -0.00000
  28        3PX         0.00276  -0.00000  -0.11222  -0.00636  -0.00000
  29        3PY        -0.01049  -0.00000  -0.01761   0.00702   0.00000
  30        3PZ        -0.00000  -0.01784   0.00000   0.00000   0.01567
  31        4S          0.00478  -0.00000  -0.09452  -0.00255   0.00000
  32        4PX         0.00176  -0.00000  -0.10896  -0.00656   0.00000
  33        4PY        -0.00443  -0.00000  -0.03686  -0.00025   0.00000
  34        4PZ        -0.00000  -0.01220   0.00000   0.00000   0.00753
  35 3   H  1S         -0.02079  -0.03447   0.01728   0.02890   0.04827
  36        2S         -0.04128  -0.06900   0.03348   0.05772   0.09771
  37        3S         -0.02305  -0.04121   0.01027   0.03184   0.05738
  38        4PX         0.00182   0.00312   0.00022  -0.00235  -0.00424
  39        4PY         0.00156   0.00425  -0.00213  -0.00172  -0.00586
  40        4PZ         0.00441   0.00629  -0.00391  -0.00598  -0.00833
  41 4   H  1S          0.04066  -0.00000   0.01935  -0.05660  -0.00000
  42        2S          0.08217   0.00000   0.03718  -0.11525  -0.00000
  43        3S          0.04339  -0.00000  -0.00278  -0.05917   0.00000
  44        4PX        -0.00353  -0.00000  -0.00018   0.00480  -0.00000
  45        4PY         0.00897   0.00000   0.00473  -0.01189  -0.00000
  46        4PZ         0.00000  -0.00090  -0.00000   0.00000   0.00160
  47 5   H  1S         -0.02079   0.03447   0.01728   0.02890  -0.04827
  48        2S         -0.04128   0.06900   0.03348   0.05772  -0.09771
  49        3S         -0.02305   0.04121   0.01027   0.03184  -0.05738
  50        4PX         0.00182  -0.00312   0.00022  -0.00235   0.00424
  51        4PY         0.00156  -0.00425  -0.00213  -0.00172   0.00586
  52        4PZ        -0.00441   0.00629   0.00391   0.00598  -0.00833
  53 6   H  1S         -0.00238  -0.00000   0.01863   0.00094  -0.00000
  54        2S         -0.00071   0.00000   0.04707  -0.00217   0.00000
  55        3S          0.00401   0.00000   0.01492  -0.00665  -0.00000
  56        4PX        -0.00081   0.00000   0.00153   0.00076  -0.00000
  57        4PY        -0.00075   0.00000  -0.00889   0.00106   0.00000
  58        4PZ        -0.00000  -0.00137  -0.00000  -0.00000   0.00109
                          16        17        18        19        20
  16       10PX         0.00000
  17       10PY         0.00000   0.00000
  18       10PZ         0.00000   0.00000   0.00000
  19       11PX         0.00000   0.00000   0.00000   0.00000
  20       11PY         0.00000   0.00000   0.00000   0.00000   0.00000
  21       11PZ         0.00000   0.00000   0.00000   0.00000   0.00000
  22 2   O  1S         -0.00658   0.00325   0.00000   0.00368   0.00674
  23        2S         -0.00970   0.00531   0.00000   0.00589   0.01140
  24        2PX        -0.04612   0.00836   0.00000  -0.01709   0.02366
  25        2PY        -0.01968   0.03167   0.00000   0.00487   0.03734
  26        2PZ        -0.00000   0.00000   0.04898   0.00000   0.00000
  27        3S          0.02856  -0.01723  -0.00000  -0.01564  -0.03697
  28        3PX        -0.06583   0.01116   0.00000  -0.02518   0.03305
  29        3PY        -0.02895   0.04644   0.00000   0.00572   0.05299
  30        3PZ        -0.00000   0.00000   0.07067   0.00000   0.00000
  31        4S         -0.00172  -0.01489   0.00000  -0.03020  -0.03376
  32        4PX        -0.06592   0.01314   0.00000  -0.02418   0.03401
  33        4PY        -0.04303   0.03844   0.00000   0.00136   0.05638
  34        4PZ        -0.00000   0.00000   0.06571   0.00000   0.00000
  35 3   H  1S          0.01467   0.03718   0.06032   0.00333   0.00785
  36        2S          0.02717   0.07193   0.11655   0.00505   0.01263
  37        3S          0.01327   0.03527   0.06211  -0.00163  -0.00042
  38        4PX        -0.00010  -0.00331  -0.00537   0.00014  -0.00110
  39        4PY        -0.00170  -0.00219  -0.00670  -0.00056  -0.00037
  40        4PZ        -0.00321  -0.00717  -0.00957  -0.00056  -0.00089
  41 4   H  1S          0.01837  -0.07350   0.00000   0.01324  -0.01840
  42        2S          0.03105  -0.14640   0.00000   0.02671  -0.03269
  43        3S          0.00010  -0.06966   0.00000   0.00868  -0.00806
  44        4PX        -0.00061   0.00604  -0.00000  -0.00074   0.00122
  45        4PY         0.00352  -0.01468   0.00000   0.00323  -0.00268
  46        4PZ         0.00000   0.00000   0.00179  -0.00000  -0.00000
  47 5   H  1S          0.01467   0.03718  -0.06032   0.00333   0.00785
  48        2S          0.02717   0.07193  -0.11655   0.00505   0.01263
  49        3S          0.01327   0.03527  -0.06211  -0.00163  -0.00042
  50        4PX        -0.00010  -0.00331   0.00537   0.00014  -0.00110
  51        4PY        -0.00170  -0.00219   0.00670  -0.00056  -0.00037
  52        4PZ         0.00321   0.00717  -0.00957   0.00056   0.00089
  53 6   H  1S          0.01158   0.01140   0.00000   0.00857   0.00794
  54        2S          0.02463   0.00672   0.00000   0.01686   0.00501
  55        3S          0.00763  -0.00666  -0.00000   0.00565  -0.00103
  56        4PX        -0.00005   0.00398  -0.00000   0.00133   0.00373
  57        4PY        -0.00766   0.00264   0.00000  -0.00232   0.00414
  58        4PZ        -0.00000  -0.00000   0.00510   0.00000   0.00000
                          21        22        23        24        25
  21       11PZ         0.00000
  22 2   O  1S          0.00000   0.00000
  23        2S          0.00000   0.00000   0.00000
  24        2PX         0.00000   0.00000   0.00000   0.00000
  25        2PY         0.00000   0.00000   0.00000   0.00000   0.00000
  26        2PZ         0.05702   0.00000   0.00000   0.00000   0.00000
  27        3S         -0.00000   0.00000   0.00000   0.00000   0.00000
  28        3PX         0.00000   0.00000   0.00000   0.00000   0.00000
  29        3PY         0.00000   0.00000   0.00000   0.00000   0.00000
  30        3PZ         0.08051   0.00000   0.00000   0.00000   0.00000
  31        4S          0.00000   0.00000   0.00000   0.00000   0.00000
  32        4PX         0.00000   0.00000   0.00000   0.00000   0.00000
  33        4PY         0.00000   0.00000   0.00000   0.00000   0.00000
  34        4PZ         0.08716   0.00000   0.00000   0.00000   0.00000
  35 3   H  1S          0.00817   0.00125   0.00193  -0.01069  -0.00729
  36        2S          0.00808   0.00189   0.00323  -0.02609  -0.02331
  37        3S         -0.00517  -0.00934  -0.01481  -0.01675  -0.03540
  38        4PX        -0.00081   0.00019   0.00016  -0.00120  -0.00008
  39        4PY        -0.00001  -0.00024  -0.00043   0.00143   0.00062
  40        4PZ        -0.00005  -0.00020  -0.00034   0.00323   0.00389
  41 4   H  1S         -0.00000   0.00331   0.00532  -0.00664   0.00758
  42        2S         -0.00000   0.00956   0.01563  -0.01547   0.03674
  43        3S          0.00000   0.00260   0.00516   0.01922   0.03993
  44        4PX        -0.00000   0.00010   0.00002  -0.00114  -0.00116
  45        4PY        -0.00000   0.00161   0.00267  -0.00188   0.00648
  46        4PZ        -0.00001  -0.00000  -0.00000   0.00000   0.00000
  47 5   H  1S         -0.00817   0.00125   0.00193  -0.01069  -0.00729
  48        2S         -0.00808   0.00189   0.00323  -0.02609  -0.02331
  49        3S          0.00517  -0.00934  -0.01481  -0.01675  -0.03540
  50        4PX         0.00081   0.00019   0.00016  -0.00120  -0.00008
  51        4PY         0.00001  -0.00024  -0.00043   0.00143   0.00062
  52        4PZ        -0.00005   0.00020   0.00034  -0.00323  -0.00389
  53 6   H  1S         -0.00000  -0.01619  -0.02568  -0.04908   0.07764
  54        2S         -0.00000  -0.00908  -0.01413  -0.09060   0.09406
  55        3S         -0.00000   0.00054   0.00046  -0.02471   0.02307
  56        4PX         0.00000  -0.00113  -0.00153  -0.00409   0.01835
  57        4PY         0.00000   0.00726   0.01101   0.02031  -0.00195
  58        4PZ         0.00585   0.00000   0.00000   0.00000  -0.00000
                          26        27        28        29        30
  26        2PZ         0.00000
  27        3S          0.00000   0.00000
  28        3PX         0.00000   0.00000   0.00000
  29        3PY         0.00000   0.00000   0.00000   0.00000
  30        3PZ         0.00000   0.00000   0.00000   0.00000   0.00000
  31        4S          0.00000   0.00000   0.00000   0.00000   0.00000
  32        4PX         0.00000   0.00000   0.00000   0.00000   0.00000
  33        4PY         0.00000   0.00000   0.00000   0.00000   0.00000
  34        4PZ         0.00000   0.00000   0.00000   0.00000   0.00000
  35 3   H  1S         -0.01183  -0.00453  -0.01532  -0.01011  -0.01550
  36        2S         -0.05074  -0.00797  -0.03753  -0.03247  -0.06902
  37        3S         -0.06136   0.04343  -0.02284  -0.04860  -0.08486
  38        4PX         0.00074   0.00010  -0.00176  -0.00020   0.00094
  39        4PY         0.00456   0.00129   0.00208   0.00091   0.00627
  40        4PZ         0.00637   0.00080   0.00465   0.00545   0.00875
  41 4   H  1S         -0.00000  -0.01443  -0.00949   0.00836  -0.00000
  42        2S         -0.00000  -0.04424  -0.02289   0.04658  -0.00000
  43        3S         -0.00000  -0.01948   0.02753   0.05444  -0.00000
  44        4PX         0.00000   0.00042  -0.00168  -0.00151   0.00000
  45        4PY        -0.00000  -0.00781  -0.00287   0.00849  -0.00000
  46        4PZ        -0.00125   0.00000   0.00000   0.00000  -0.00172
  47 5   H  1S          0.01183  -0.00453  -0.01532  -0.01011   0.01550
  48        2S          0.05074  -0.00797  -0.03753  -0.03247   0.06902
  49        3S          0.06136   0.04343  -0.02284  -0.04860   0.08486
  50        4PX        -0.00074   0.00010  -0.00176  -0.00020  -0.00094
  51        4PY        -0.00456   0.00129   0.00208   0.00091  -0.00627
  52        4PZ         0.00637  -0.00080  -0.00465  -0.00545   0.00875
  53 6   H  1S         -0.00000   0.07467  -0.06998   0.10793   0.00000
  54        2S         -0.00000   0.04372  -0.13132   0.12881  -0.00000
  55        3S          0.00000   0.00140  -0.03604   0.03119   0.00000
  56        4PX         0.00000   0.00341  -0.00599   0.02556   0.00000
  57        4PY         0.00000  -0.03085   0.02871  -0.00248   0.00000
  58        4PZ         0.01770   0.00000   0.00000  -0.00000   0.02489
                          31        32        33        34        35
  31        4S          0.00000
  32        4PX         0.00000   0.00000
  33        4PY         0.00000   0.00000   0.00000
  34        4PZ         0.00000   0.00000   0.00000   0.00000
  35 3   H  1S         -0.01477  -0.02232  -0.01588  -0.02537   0.00000
  36        2S         -0.02289  -0.05002  -0.04429  -0.09352   0.00000
  37        3S          0.04382  -0.02852  -0.05630  -0.10459   0.00000
  38        4PX        -0.00022  -0.00117  -0.00029   0.00176   0.00000
  39        4PY         0.00266   0.00274   0.00145   0.00800   0.00000
  40        4PZ         0.00204   0.00618   0.00668   0.01119   0.00000
  41 4   H  1S         -0.03947  -0.01326   0.01133  -0.00000  -0.00977
  42        2S         -0.09986  -0.02435   0.05099  -0.00000  -0.02679
  43        3S         -0.03827   0.02908   0.06279  -0.00000  -0.02280
  44        4PX         0.00159  -0.00140  -0.00220   0.00000   0.00141
  45        4PY        -0.01505  -0.00288   0.00876  -0.00000  -0.00222
  46        4PZ         0.00000   0.00000   0.00000  -0.00219   0.00143
  47 5   H  1S         -0.01477  -0.02232  -0.01588   0.02537  -0.01043
  48        2S         -0.02289  -0.05002  -0.04429   0.09352  -0.02997
  49        3S          0.04382  -0.02852  -0.05630   0.10459  -0.02951
  50        4PX        -0.00022  -0.00117  -0.00029  -0.00176   0.00168
  51        4PY         0.00266   0.00274   0.00145  -0.00800   0.00273
  52        4PZ        -0.00204  -0.00618  -0.00668   0.01119  -0.00158
  53 6   H  1S          0.00237  -0.04341   0.07943  -0.00000  -0.00147
  54        2S         -0.05704  -0.09668   0.08816  -0.00000   0.00020
  55        3S         -0.02493  -0.02776   0.02165   0.00000  -0.00183
  56        4PX        -0.00779  -0.00171   0.02201   0.00000  -0.00026
  57        4PY        -0.01459   0.02358   0.00590  -0.00000  -0.00050
  58        4PZ         0.00000   0.00000  -0.00000   0.02770  -0.00116
                          36        37        38        39        40
  36        2S          0.00000
  37        3S          0.00000   0.00000
  38        4PX         0.00000   0.00000   0.00000
  39        4PY         0.00000   0.00000   0.00000   0.00000
  40        4PZ         0.00000   0.00000   0.00000   0.00000   0.00000
  41 4   H  1S         -0.02580  -0.02499   0.00139  -0.00022   0.00266
  42        2S         -0.06534  -0.05932   0.00321   0.00021   0.00698
  43        3S         -0.05159  -0.03998   0.00173   0.00112   0.00580
  44        4PX         0.00328   0.00253  -0.00012  -0.00005  -0.00035
  45        4PY        -0.00605  -0.00666   0.00030  -0.00005   0.00067
  46        4PZ         0.00314   0.00213  -0.00012  -0.00020  -0.00029
  47 5   H  1S         -0.02997  -0.02951   0.00168   0.00273   0.00158
  48        2S         -0.07971  -0.07152   0.00401   0.00697   0.00523
  49        3S         -0.07152  -0.05174   0.00312   0.00605   0.00565
  50        4PX         0.00401   0.00312  -0.00016  -0.00032  -0.00030
  51        4PY         0.00697   0.00605  -0.00032  -0.00051  -0.00056
  52        4PZ        -0.00523  -0.00565   0.00030   0.00056   0.00027
  53 6   H  1S         -0.00660  -0.01054   0.00054  -0.00000   0.00141
  54        2S         -0.00340  -0.01416   0.00107  -0.00046   0.00110
  55        3S         -0.00477  -0.00669   0.00049  -0.00006   0.00066
  56        4PX        -0.00163  -0.00344   0.00003   0.00001   0.00035
  57        4PY        -0.00134  -0.00217  -0.00024   0.00010   0.00015
  58        4PZ        -0.00509  -0.00622   0.00007   0.00046   0.00064
                          41        42        43        44        45
  41 4   H  1S          0.00000
  42        2S          0.00000   0.00000
  43        3S          0.00000   0.00000   0.00000
  44        4PX         0.00000   0.00000   0.00000   0.00000
  45        4PY         0.00000   0.00000   0.00000   0.00000   0.00000
  46        4PZ         0.00000   0.00000   0.00000   0.00000   0.00000
  47 5   H  1S         -0.00977  -0.02679  -0.02280   0.00141  -0.00222
  48        2S         -0.02580  -0.06534  -0.05159   0.00328  -0.00605
  49        3S         -0.02499  -0.05932  -0.03998   0.00253  -0.00666
  50        4PX         0.00139   0.00321   0.00173  -0.00012   0.00030
  51        4PY        -0.00022   0.00021   0.00112  -0.00005  -0.00005
  52        4PZ        -0.00266  -0.00698  -0.00580   0.00035  -0.00067
  53 6   H  1S          0.00827   0.02919   0.01738  -0.00041   0.00443
  54        2S          0.01864   0.05426   0.02324  -0.00071   0.00772
  55        3S          0.01148   0.02739   0.01197  -0.00068   0.00344
  56        4PX         0.00140   0.00561   0.00456  -0.00012   0.00094
  57        4PY        -0.00222  -0.00509   0.00049  -0.00002  -0.00055
  58        4PZ        -0.00000  -0.00000  -0.00000   0.00000  -0.00000
                          46        47        48        49        50
  46        4PZ         0.00000
  47 5   H  1S         -0.00143   0.00000
  48        2S         -0.00314   0.00000   0.00000
  49        3S         -0.00213   0.00000   0.00000   0.00000
  50        4PX         0.00012   0.00000   0.00000   0.00000   0.00000
  51        4PY         0.00020   0.00000   0.00000   0.00000   0.00000
  52        4PZ        -0.00029   0.00000   0.00000   0.00000   0.00000
  53 6   H  1S         -0.00000  -0.00147  -0.00660  -0.01054   0.00054
  54        2S         -0.00000   0.00020  -0.00340  -0.01416   0.00107
  55        3S         -0.00000  -0.00183  -0.00477  -0.00669   0.00049
  56        4PX        -0.00000  -0.00026  -0.00163  -0.00344   0.00003
  57        4PY         0.00000  -0.00050  -0.00134  -0.00217  -0.00024
  58        4PZ        -0.00013   0.00116   0.00509   0.00622  -0.00007
                          51        52        53        54        55
  51        4PY         0.00000
  52        4PZ         0.00000   0.00000
  53 6   H  1S         -0.00000  -0.00141   0.00000
  54        2S         -0.00046  -0.00110   0.00000   0.00000
  55        3S         -0.00006  -0.00066   0.00000   0.00000   0.00000
  56        4PX         0.00001  -0.00035   0.00000   0.00000   0.00000
  57        4PY         0.00010  -0.00015   0.00000   0.00000   0.00000
  58        4PZ        -0.00046   0.00064   0.00000   0.00000   0.00000
                          56        57        58
  56        4PX         0.00000
  57        4PY         0.00000   0.00000
  58        4PZ         0.00000   0.00000   0.00000
    Full Bonding Mulliken population analysis:
                           1         2         3         4         5
   1 1   Si 1S          0.00000
   2        2S          0.00000   0.00000
   3        3S          0.00000   0.00000   0.00000
   4        4S          0.00000   0.00000   0.00000   0.00000
   5        5S          0.00000   0.00000   0.00000   0.00000   0.00000
   6        6S          0.00000   0.00000   0.00000   0.00000   0.00000
   7        7PX         0.00000   0.00000   0.00000   0.00000   0.00000
   8        7PY         0.00000   0.00000   0.00000   0.00000   0.00000
   9        7PZ         0.00000   0.00000   0.00000   0.00000   0.00000
  10        8PX         0.00000   0.00000   0.00000   0.00000   0.00000
  11        8PY         0.00000   0.00000   0.00000   0.00000   0.00000
  12        8PZ         0.00000   0.00000   0.00000   0.00000   0.00000
  13        9PX         0.00000   0.00000   0.00000   0.00000   0.00000
  14        9PY         0.00000   0.00000   0.00000   0.00000   0.00000
  15        9PZ         0.00000   0.00000   0.00000   0.00000   0.00000
  16       10PX         0.00000   0.00000   0.00000   0.00000   0.00000
  17       10PY         0.00000   0.00000   0.00000   0.00000   0.00000
  18       10PZ         0.00000   0.00000   0.00000   0.00000   0.00000
  19       11PX         0.00000   0.00000   0.00000   0.00000   0.00000
  20       11PY         0.00000   0.00000   0.00000   0.00000   0.00000
  21       11PZ         0.00000   0.00000   0.00000   0.00000   0.00000
  22 2   O  1S         -0.00000  -0.00000   0.00000   0.00000  -0.00009
  23        2S          0.00000   0.00000  -0.00000   0.00000  -0.00014
  24        2PX         0.00000   0.00000  -0.00000  -0.00001   0.00296
  25        2PY         0.00000   0.00000  -0.00000  -0.00000   0.00004
  26        2PZ         0.00000   0.00000   0.00000   0.00000   0.00000
  27        3S          0.00000   0.00000  -0.00000  -0.00005   0.00220
  28        3PX         0.00000   0.00000  -0.00010  -0.00099   0.01994
  29        3PY         0.00000   0.00000  -0.00000  -0.00002   0.00026
  30        3PZ         0.00000   0.00000   0.00000   0.00000   0.00000
  31        4S          0.00000   0.00000   0.00000  -0.00004   0.00040
  32        4PX         0.00004   0.00031  -0.00269  -0.00904   0.04306
  33        4PY         0.00000   0.00001  -0.00013  -0.00042   0.00180
  34        4PZ         0.00000   0.00000   0.00000   0.00000   0.00000
  35 3   H  1S          0.00000   0.00000  -0.00001  -0.00021   0.00918
  36        2S          0.00002   0.00017  -0.00158  -0.00572   0.03828
  37        3S         -0.00000  -0.00000  -0.00005  -0.00094   0.01323
  38        4PX         0.00000   0.00000  -0.00001  -0.00007   0.00042
  39        4PY         0.00000   0.00000  -0.00003  -0.00014   0.00085
  40        4PZ         0.00000   0.00001  -0.00007  -0.00037   0.00224
  41 4   H  1S          0.00000   0.00000  -0.00002  -0.00024   0.01026
  42        2S          0.00002   0.00019  -0.00180  -0.00650   0.04520
  43        3S          0.00001   0.00010  -0.00094  -0.00375   0.02967
  44        4PX         0.00000   0.00000  -0.00002  -0.00008   0.00050
  45        4PY         0.00000   0.00001  -0.00012  -0.00060   0.00375
  46        4PZ         0.00000   0.00000   0.00000   0.00000   0.00000
  47 5   H  1S          0.00000   0.00000  -0.00001  -0.00021   0.00918
  48        2S          0.00002   0.00017  -0.00158  -0.00572   0.03828
  49        3S         -0.00000  -0.00000  -0.00005  -0.00094   0.01323
  50        4PX         0.00000   0.00000  -0.00001  -0.00007   0.00042
  51        4PY         0.00000   0.00000  -0.00003  -0.00014   0.00085
  52        4PZ         0.00000   0.00001  -0.00007  -0.00037   0.00224
  53 6   H  1S         -0.00000  -0.00000   0.00000   0.00000  -0.00035
  54        2S         -0.00000  -0.00000   0.00002   0.00012  -0.00373
  55        3S         -0.00000  -0.00002   0.00013   0.00041  -0.00249
  56        4PX        -0.00000  -0.00000   0.00000   0.00000  -0.00002
  57        4PY        -0.00000  -0.00000   0.00000   0.00000  -0.00017
  58        4PZ         0.00000   0.00000   0.00000   0.00000   0.00000
                           6         7         8         9        10
   6        6S          0.00000
   7        7PX         0.00000   0.00000
   8        7PY         0.00000   0.00000   0.00000
   9        7PZ         0.00000   0.00000   0.00000   0.00000
  10        8PX         0.00000   0.00000   0.00000   0.00000   0.00000
  11        8PY         0.00000   0.00000   0.00000   0.00000   0.00000
  12        8PZ         0.00000   0.00000   0.00000   0.00000   0.00000
  13        9PX         0.00000   0.00000   0.00000   0.00000   0.00000
  14        9PY         0.00000   0.00000   0.00000   0.00000   0.00000
  15        9PZ         0.00000   0.00000   0.00000   0.00000   0.00000
  16       10PX         0.00000   0.00000   0.00000   0.00000   0.00000
  17       10PY         0.00000   0.00000   0.00000   0.00000   0.00000
  18       10PZ         0.00000   0.00000   0.00000   0.00000   0.00000
  19       11PX         0.00000   0.00000   0.00000   0.00000   0.00000
  20       11PY         0.00000   0.00000   0.00000   0.00000   0.00000
  21       11PZ         0.00000   0.00000   0.00000   0.00000   0.00000
  22 2   O  1S          0.00096   0.00000   0.00000   0.00000   0.00000
  23        2S          0.00154  -0.00000  -0.00000   0.00000   0.00000
  24        2PX        -0.00081  -0.00000  -0.00000   0.00000  -0.00002
  25        2PY         0.00003  -0.00000  -0.00000   0.00000  -0.00000
  26        2PZ         0.00000   0.00000   0.00000  -0.00000   0.00000
  27        3S         -0.02392  -0.00000  -0.00000   0.00000  -0.00023
  28        3PX        -0.00535  -0.00004  -0.00000   0.00000  -0.00151
  29        3PY         0.00016  -0.00000  -0.00000   0.00000  -0.00003
  30        3PZ         0.00000   0.00000   0.00000  -0.00000   0.00000
  31        4S         -0.07035  -0.00023  -0.00000   0.00000  -0.00331
  32        4PX        -0.02369  -0.00067  -0.00000   0.00000  -0.00810
  33        4PY         0.00035  -0.00003  -0.00001   0.00000  -0.00035
  34        4PZ         0.00000   0.00000   0.00000  -0.00003   0.00000
  35 3   H  1S          0.00884  -0.00000  -0.00000  -0.00000  -0.00003
  36        2S          0.03614  -0.00004  -0.00010  -0.00028  -0.00052
  37        3S          0.01031  -0.00001  -0.00004  -0.00013  -0.00014
  38        4PX         0.00011  -0.00000  -0.00000  -0.00000   0.00000
  39        4PY         0.00037  -0.00000  -0.00000  -0.00001  -0.00002
  40        4PZ         0.00103  -0.00000  -0.00001  -0.00001  -0.00006
  41 4   H  1S          0.00829  -0.00000  -0.00000   0.00000  -0.00004
  42        2S          0.03595  -0.00005  -0.00039   0.00000  -0.00063
  43        3S          0.01261  -0.00000  -0.00015   0.00000  -0.00000
  44        4PX         0.00011  -0.00000  -0.00001   0.00000  -0.00000
  45        4PY         0.00150  -0.00001  -0.00003   0.00000  -0.00010
  46        4PZ         0.00000   0.00000   0.00000  -0.00000   0.00000
  47 5   H  1S          0.00884  -0.00000  -0.00000  -0.00000  -0.00003
  48        2S          0.03614  -0.00004  -0.00010  -0.00028  -0.00052
  49        3S          0.01031  -0.00001  -0.00004  -0.00013  -0.00014
  50        4PX         0.00011  -0.00000  -0.00000  -0.00000   0.00000
  51        4PY         0.00037  -0.00000  -0.00000  -0.00001  -0.00002
  52        4PZ         0.00103  -0.00000  -0.00001  -0.00001  -0.00006
  53 6   H  1S          0.00042   0.00000  -0.00000   0.00000   0.00000
  54        2S          0.00564   0.00001  -0.00000   0.00000   0.00017
  55        3S          0.00441   0.00002   0.00000   0.00000   0.00021
  56        4PX         0.00022   0.00000  -0.00000   0.00000   0.00000
  57        4PY         0.00000   0.00000   0.00000   0.00000   0.00000
  58        4PZ         0.00000   0.00000   0.00000  -0.00000   0.00000
                          11        12        13        14        15
  11        8PY         0.00000
  12        8PZ         0.00000   0.00000
  13        9PX         0.00000   0.00000   0.00000
  14        9PY         0.00000   0.00000   0.00000   0.00000
  15        9PZ         0.00000   0.00000   0.00000   0.00000   0.00000
  16       10PX         0.00000   0.00000   0.00000   0.00000   0.00000
  17       10PY         0.00000   0.00000   0.00000   0.00000   0.00000
  18       10PZ         0.00000   0.00000   0.00000   0.00000   0.00000
  19       11PX         0.00000   0.00000   0.00000   0.00000   0.00000
  20       11PY         0.00000   0.00000   0.00000   0.00000   0.00000
  21       11PZ         0.00000   0.00000   0.00000   0.00000   0.00000
  22 2   O  1S          0.00000   0.00000  -0.00013  -0.00000   0.00000
  23        2S          0.00000   0.00000  -0.00021  -0.00000   0.00000
  24        2PX        -0.00000   0.00000   0.00304   0.00002   0.00000
  25        2PY        -0.00000   0.00000   0.00004   0.00002   0.00000
  26        2PZ         0.00000  -0.00000   0.00000   0.00000   0.00005
  27        3S         -0.00000   0.00000   0.00586   0.00007   0.00000
  28        3PX        -0.00001   0.00000   0.02189   0.00013   0.00000
  29        3PY        -0.00002   0.00000   0.00037   0.00024   0.00000
  30        3PZ         0.00000  -0.00003   0.00000   0.00000   0.00057
  31        4S         -0.00002   0.00000   0.02421   0.00006   0.00000
  32        4PX        -0.00002   0.00000   0.04109   0.00032   0.00000
  33        4PY        -0.00014   0.00000   0.00181  -0.00004   0.00000
  34        4PZ         0.00000  -0.00039   0.00000   0.00000   0.00122
  35 3   H  1S         -0.00008  -0.00022   0.00080   0.00192   0.00532
  36        2S         -0.00132  -0.00367   0.00356   0.00883   0.02478
  37        3S         -0.00054  -0.00159   0.00077   0.00345   0.01032
  38        4PX        -0.00002  -0.00007   0.00001   0.00016   0.00048
  39        4PY        -0.00001  -0.00014   0.00015   0.00002   0.00096
  40        4PZ        -0.00014  -0.00027   0.00044   0.00097   0.00153
  41 4   H  1S         -0.00032   0.00000   0.00099   0.00745   0.00000
  42        2S         -0.00517   0.00000   0.00428   0.03433   0.00000
  43        3S         -0.00194   0.00000  -0.00022   0.01234   0.00000
  44        4PX        -0.00010   0.00000  -0.00001   0.00068   0.00000
  45        4PY        -0.00057   0.00000   0.00067   0.00332   0.00000
  46        4PZ         0.00000  -0.00001   0.00000   0.00000   0.00014
  47 5   H  1S         -0.00008  -0.00022   0.00080   0.00192   0.00532
  48        2S         -0.00132  -0.00367   0.00356   0.00883   0.02478
  49        3S         -0.00054  -0.00159   0.00077   0.00345   0.01032
  50        4PX        -0.00002  -0.00007   0.00001   0.00016   0.00048
  51        4PY        -0.00001  -0.00014   0.00015   0.00002   0.00096
  52        4PZ        -0.00014  -0.00027   0.00044   0.00097   0.00153
  53 6   H  1S         -0.00000   0.00000  -0.00009   0.00000   0.00000
  54        2S         -0.00000   0.00000  -0.00273  -0.00004   0.00000
  55        3S          0.00003   0.00000  -0.00199  -0.00027   0.00000
  56        4PX        -0.00000   0.00000  -0.00005   0.00001   0.00000
  57        4PY         0.00000   0.00000  -0.00010   0.00000   0.00000
  58        4PZ         0.00000  -0.00000   0.00000   0.00000   0.00000
                          16        17        18        19        20
  16       10PX         0.00000
  17       10PY         0.00000   0.00000
  18       10PZ         0.00000   0.00000   0.00000
  19       11PX         0.00000   0.00000   0.00000   0.00000
  20       11PY         0.00000   0.00000   0.00000   0.00000   0.00000
  21       11PZ         0.00000   0.00000   0.00000   0.00000   0.00000
  22 2   O  1S          0.00037  -0.00002   0.00000  -0.00018  -0.00003
  23        2S          0.00057  -0.00003   0.00000  -0.00031  -0.00005
  24        2PX         0.00278  -0.00006   0.00000   0.00010  -0.00006
  25        2PY         0.00015   0.00076   0.00000  -0.00001   0.00082
  26        2PZ         0.00000   0.00000   0.00121   0.00000   0.00000
  27        3S         -0.00906   0.00050   0.00000   0.00454   0.00098
  28        3PX         0.01424  -0.00033   0.00000   0.00049  -0.00035
  29        3PY         0.00085   0.00481   0.00000  -0.00006   0.00510
  30        3PZ         0.00000   0.00000   0.00751   0.00000   0.00000
  31        4S          0.00091   0.00072   0.00000   0.01664   0.00169
  32        4PX         0.02454  -0.00084   0.00000   0.00019  -0.00110
  33        4PY         0.00277   0.01260   0.00000  -0.00004   0.01944
  34        4PZ         0.00000   0.00000   0.02192   0.00000   0.00000
  35 3   H  1S          0.00154   0.00563   0.01515   0.00026   0.00089
  36        2S          0.00523   0.01993   0.05355   0.00086   0.00308
  37        3S          0.00214   0.00821   0.02396  -0.00034  -0.00013
  38        4PX        -0.00001   0.00022   0.00060   0.00002   0.00002
  39        4PY         0.00012  -0.00017   0.00108   0.00001  -0.00004
  40        4PZ         0.00036   0.00116   0.00090   0.00002   0.00005
  41 4   H  1S          0.00209   0.02160   0.00000   0.00111   0.00399
  42        2S          0.00642   0.07832   0.00000   0.00483   0.01530
  43        3S          0.00002   0.03111   0.00000   0.00193   0.00463
  44        4PX        -0.00008   0.00084   0.00000  -0.00009   0.00005
  45        4PY         0.00049   0.00268   0.00000   0.00014  -0.00007
  46        4PZ         0.00000   0.00000   0.00032   0.00000   0.00000
  47 5   H  1S          0.00154   0.00563   0.01515   0.00026   0.00089
  48        2S          0.00523   0.01993   0.05355   0.00086   0.00308
  49        3S          0.00214   0.00821   0.02396  -0.00034  -0.00013
  50        4PX        -0.00001   0.00022   0.00060   0.00002   0.00002
  51        4PY         0.00012  -0.00017   0.00108   0.00001  -0.00004
  52        4PZ         0.00036   0.00116   0.00090   0.00002   0.00005
  53 6   H  1S         -0.00097   0.00029   0.00000  -0.00151   0.00043
  54        2S         -0.00592   0.00050   0.00000  -0.00697   0.00064
  55        3S         -0.00266  -0.00071   0.00000  -0.00334  -0.00019
  56        4PX         0.00001   0.00022   0.00000  -0.00010   0.00017
  57        4PY        -0.00043   0.00005   0.00000  -0.00010   0.00024
  58        4PZ         0.00000   0.00000   0.00019   0.00000   0.00000
                          21        22        23        24        25
  21       11PZ         0.00000
  22 2   O  1S          0.00000   0.00000
  23        2S          0.00000   0.00000   0.00000
  24        2PX         0.00000   0.00000   0.00000   0.00000
  25        2PY         0.00000   0.00000   0.00000   0.00000   0.00000
  26        2PZ         0.00126   0.00000   0.00000   0.00000   0.00000
  27        3S          0.00000   0.00000   0.00000   0.00000   0.00000
  28        3PX         0.00000   0.00000   0.00000   0.00000   0.00000
  29        3PY         0.00000   0.00000   0.00000   0.00000   0.00000
  30        3PZ         0.00783   0.00000   0.00000   0.00000   0.00000
  31        4S          0.00000   0.00000   0.00000   0.00000   0.00000
  32        4PX         0.00000   0.00000   0.00000   0.00000   0.00000
  33        4PY         0.00000   0.00000   0.00000   0.00000   0.00000
  34        4PZ         0.03032   0.00000   0.00000   0.00000   0.00000
  35 3   H  1S          0.00153   0.00000  -0.00000  -0.00000  -0.00000
  36        2S          0.00327   0.00000   0.00000  -0.00001  -0.00000
  37        3S         -0.00257  -0.00006  -0.00011  -0.00014  -0.00012
  38        4PX         0.00003  -0.00000  -0.00000   0.00000   0.00000
  39        4PY         0.00000   0.00000   0.00000  -0.00000  -0.00000
  40        4PZ        -0.00000   0.00000   0.00000  -0.00000  -0.00000
  41 4   H  1S          0.00000   0.00000   0.00000  -0.00000  -0.00000
  42        2S          0.00000   0.00000   0.00000  -0.00001  -0.00002
  43        3S          0.00000   0.00002   0.00005   0.00019  -0.00023
  44        4PX         0.00000  -0.00000  -0.00000   0.00000  -0.00000
  45        4PY         0.00000   0.00000   0.00000  -0.00000  -0.00000
  46        4PZ        -0.00000   0.00000   0.00000   0.00000   0.00000
  47 5   H  1S          0.00153   0.00000  -0.00000  -0.00000  -0.00000
  48        2S          0.00327   0.00000   0.00000  -0.00001  -0.00000
  49        3S         -0.00257  -0.00006  -0.00011  -0.00014  -0.00012
  50        4PX         0.00003  -0.00000  -0.00000   0.00000   0.00000
  51        4PY         0.00000   0.00000   0.00000  -0.00000  -0.00000
  52        4PZ        -0.00000   0.00000   0.00000  -0.00000  -0.00000
  53 6   H  1S          0.00000  -0.00023  -0.00033   0.00195   0.00495
  54        2S          0.00000  -0.00061  -0.00100   0.00477   0.00793
  55        3S          0.00000   0.00003   0.00003   0.00039   0.00058
  56        4PX         0.00000  -0.00006  -0.00008   0.00003   0.00239
  57        4PY         0.00000  -0.00060  -0.00097   0.00264   0.00026
  58        4PZ         0.00042   0.00000   0.00000   0.00000   0.00000
                          26        27        28        29        30
  26        2PZ         0.00000
  27        3S          0.00000   0.00000
  28        3PX         0.00000   0.00000   0.00000
  29        3PY         0.00000   0.00000   0.00000   0.00000
  30        3PZ         0.00000   0.00000   0.00000   0.00000   0.00000
  31        4S          0.00000   0.00000   0.00000   0.00000   0.00000
  32        4PX         0.00000   0.00000   0.00000   0.00000   0.00000
  33        4PY         0.00000   0.00000   0.00000   0.00000   0.00000
  34        4PZ         0.00000   0.00000   0.00000   0.00000   0.00000
  35 3   H  1S         -0.00000  -0.00000  -0.00000  -0.00000  -0.00000
  36        2S         -0.00001  -0.00002  -0.00018  -0.00006  -0.00018
  37        3S         -0.00028   0.00212  -0.00088  -0.00076  -0.00182
  38        4PX        -0.00000  -0.00000   0.00000   0.00000  -0.00000
  39        4PY        -0.00000  -0.00000  -0.00000  -0.00000  -0.00000
  40        4PZ        -0.00000  -0.00000  -0.00000  -0.00000  -0.00000
  41 4   H  1S          0.00000  -0.00000  -0.00000  -0.00000   0.00000
  42        2S          0.00000  -0.00016  -0.00018  -0.00020   0.00000
  43        3S          0.00000  -0.00114   0.00130  -0.00144   0.00000
  44        4PX         0.00000  -0.00000   0.00000  -0.00000   0.00000
  45        4PY         0.00000  -0.00000  -0.00000  -0.00000   0.00000
  46        4PZ        -0.00000   0.00000   0.00000   0.00000  -0.00000
  47 5   H  1S         -0.00000  -0.00000  -0.00000  -0.00000  -0.00000
  48        2S         -0.00001  -0.00002  -0.00018  -0.00006  -0.00018
  49        3S         -0.00028   0.00212  -0.00088  -0.00076  -0.00182
  50        4PX        -0.00000  -0.00000   0.00000   0.00000  -0.00000
  51        4PY        -0.00000  -0.00000  -0.00000  -0.00000  -0.00000
  52        4PZ        -0.00000  -0.00000  -0.00000  -0.00000  -0.00000
  53 6   H  1S          0.00000   0.01236   0.01228   0.03034   0.00000
  54        2S          0.00000   0.01638   0.02388   0.03752   0.00000
  55        3S          0.00000   0.00049   0.00234   0.00324   0.00000
  56        4PX         0.00000   0.00080  -0.00036   0.00793   0.00000
  57        4PY         0.00000   0.01151   0.00891   0.00060   0.00000
  58        4PZ         0.00129   0.00000   0.00000   0.00000   0.00632
                          31        32        33        34        35
  31        4S          0.00000
  32        4PX         0.00000   0.00000
  33        4PY         0.00000   0.00000   0.00000
  34        4PZ         0.00000   0.00000   0.00000   0.00000
  35 3   H  1S         -0.00005  -0.00026  -0.00008  -0.00017   0.00000
  36        2S         -0.00067  -0.00339  -0.00122  -0.00352   0.00000
  37        3S          0.00622  -0.00480  -0.00384  -0.00978   0.00000
  38        4PX         0.00000   0.00004   0.00000  -0.00004   0.00000
  39        4PY        -0.00001  -0.00005  -0.00000  -0.00007   0.00000
  40        4PZ        -0.00002  -0.00014  -0.00006  -0.00007   0.00000
  41 4   H  1S         -0.00021  -0.00024  -0.00012   0.00000  -0.00000
  42        2S         -0.00390  -0.00223  -0.00262   0.00000  -0.00009
  43        3S         -0.00630   0.00575  -0.00697   0.00000  -0.00116
  44        4PX        -0.00003   0.00007  -0.00008   0.00000  -0.00000
  45        4PY        -0.00017  -0.00010  -0.00009   0.00000  -0.00000
  46        4PZ         0.00000   0.00000   0.00000  -0.00002   0.00000
  47 5   H  1S         -0.00005  -0.00026  -0.00008  -0.00017  -0.00000
  48        2S         -0.00067  -0.00339  -0.00122  -0.00352  -0.00010
  49        3S          0.00622  -0.00480  -0.00384  -0.00978  -0.00156
  50        4PX         0.00000   0.00004   0.00000  -0.00004   0.00000
  51        4PY        -0.00001  -0.00005  -0.00000  -0.00007   0.00000
  52        4PZ        -0.00002  -0.00014  -0.00006  -0.00007  -0.00000
  53 6   H  1S          0.00074   0.01095   0.03210   0.00000  -0.00000
  54        2S         -0.03509   0.03250   0.04746   0.00000   0.00000
  55        3S         -0.01682   0.00523   0.00654   0.00000  -0.00004
  56        4PX        -0.00143  -0.00041   0.00470   0.00000  -0.00000
  57        4PY         0.00429   0.00504   0.00020   0.00000  -0.00000
  58        4PZ         0.00000   0.00000   0.00000   0.01042  -0.00000
                          36        37        38        39        40
  36        2S          0.00000
  37        3S          0.00000   0.00000
  38        4PX         0.00000   0.00000   0.00000
  39        4PY         0.00000   0.00000   0.00000   0.00000
  40        4PZ         0.00000   0.00000   0.00000   0.00000   0.00000
  41 4   H  1S         -0.00008  -0.00128   0.00000   0.00000  -0.00000
  42        2S         -0.00214  -0.00908   0.00000  -0.00000  -0.00006
  43        3S         -0.00790  -0.01360   0.00000  -0.00007  -0.00022
  44        4PX        -0.00000  -0.00000  -0.00000  -0.00000  -0.00000
  45        4PY        -0.00009  -0.00044   0.00000   0.00000  -0.00000
  46        4PZ         0.00003   0.00008  -0.00000   0.00000   0.00000
  47 5   H  1S         -0.00010  -0.00156   0.00000   0.00000  -0.00000
  48        2S         -0.00277  -0.01127   0.00000   0.00000  -0.00010
  49        3S         -0.01127  -0.01794   0.00000   0.00000  -0.00044
  50        4PX         0.00000   0.00000  -0.00000   0.00000   0.00000
  51        4PY         0.00000   0.00000   0.00000  -0.00000   0.00000
  52        4PZ        -0.00010  -0.00044   0.00000   0.00000  -0.00000
  53 6   H  1S         -0.00000  -0.00022  -0.00000   0.00000  -0.00000
  54        2S         -0.00002  -0.00102  -0.00000   0.00000  -0.00000
  55        3S         -0.00034  -0.00138  -0.00002   0.00000  -0.00001
  56        4PX        -0.00000  -0.00012  -0.00000  -0.00000  -0.00000
  57        4PY        -0.00000  -0.00000   0.00000   0.00000  -0.00000
  58        4PZ        -0.00001  -0.00010  -0.00000  -0.00000  -0.00000
                          41        42        43        44        45
  41 4   H  1S          0.00000
  42        2S          0.00000   0.00000
  43        3S          0.00000   0.00000   0.00000
  44        4PX         0.00000   0.00000   0.00000   0.00000
  45        4PY         0.00000   0.00000   0.00000   0.00000   0.00000
  46        4PZ         0.00000   0.00000   0.00000   0.00000   0.00000
  47 5   H  1S         -0.00000  -0.00009  -0.00116  -0.00000  -0.00000
  48        2S         -0.00008  -0.00214  -0.00790  -0.00000  -0.00009
  49        3S         -0.00128  -0.00908  -0.01360  -0.00000  -0.00044
  50        4PX         0.00000   0.00000   0.00000  -0.00000   0.00000
  51        4PY         0.00000  -0.00000  -0.00007  -0.00000   0.00000
  52        4PZ        -0.00000  -0.00006  -0.00022  -0.00000  -0.00000
  53 6   H  1S          0.00000   0.00000   0.00013   0.00000   0.00000
  54        2S          0.00000   0.00007   0.00074   0.00000   0.00000
  55        3S          0.00009   0.00088   0.00145   0.00001   0.00004
  56        4PX         0.00000   0.00000   0.00006   0.00000   0.00000
  57        4PY         0.00000   0.00000  -0.00001  -0.00000   0.00000
  58        4PZ         0.00000   0.00000   0.00000   0.00000   0.00000
                          46        47        48        49        50
  46        4PZ         0.00000
  47 5   H  1S          0.00000   0.00000
  48        2S          0.00003   0.00000   0.00000
  49        3S          0.00008   0.00000   0.00000   0.00000
  50        4PX        -0.00000   0.00000   0.00000   0.00000   0.00000
  51        4PY         0.00000   0.00000   0.00000   0.00000   0.00000
  52        4PZ         0.00000   0.00000   0.00000   0.00000   0.00000
  53 6   H  1S          0.00000  -0.00000  -0.00000  -0.00022  -0.00000
  54        2S          0.00000   0.00000  -0.00002  -0.00102  -0.00000
  55        3S          0.00000  -0.00004  -0.00034  -0.00138  -0.00002
  56        4PX         0.00000  -0.00000  -0.00000  -0.00012  -0.00000
  57        4PY         0.00000  -0.00000  -0.00000  -0.00000   0.00000
  58        4PZ        -0.00000  -0.00000  -0.00001  -0.00010  -0.00000
                          51        52        53        54        55
  51        4PY         0.00000
  52        4PZ         0.00000   0.00000
  53 6   H  1S          0.00000  -0.00000   0.00000
  54        2S          0.00000  -0.00000   0.00000   0.00000
  55        3S          0.00000  -0.00001   0.00000   0.00000   0.00000
  56        4PX        -0.00000  -0.00000   0.00000   0.00000   0.00000
  57        4PY         0.00000  -0.00000   0.00000   0.00000   0.00000
  58        4PZ        -0.00000  -0.00000   0.00000   0.00000   0.00000
                          56        57        58
  56        4PX         0.00000
  57        4PY         0.00000   0.00000
  58        4PZ         0.00000   0.00000   0.00000
     Bonding Gross orbital populations:
                           1
   1 1   Si 1S          0.00011
   2        2S          0.00095
   3        3S         -0.00916
   4        4S         -0.03609
   5        5S          0.28143
   6        6S          0.06166
   7        7PX        -0.00111
   8        7PY        -0.00090
   9        7PZ        -0.00089
  10        8PX        -0.01550
  11        8PY        -0.01252
  12        8PZ        -0.01233
  13        9PX         0.11017
  14        9PY         0.08937
  15        9PZ         0.08876
  16       10PX         0.05584
  17       10PY         0.22298
  18       10PZ         0.22165
  19       11PX         0.01889
  20       11PY         0.05937
  21       11PZ         0.04434
  22 2   O  1S         -0.00069
  23        2S         -0.00115
  24        2PX         0.01761
  25        2PY         0.01747
  26        2PZ         0.00323
  27        3S          0.02530
  28        3PX         0.09407
  29        3PY         0.08801
  30        3PZ         0.01819
  31        4S         -0.07729
  32        4PX         0.10274
  33        4PY         0.10837
  34        4PZ         0.03613
  35 3   H  1S          0.04698
  36        2S          0.15040
  37        3S         -0.00667
  38        4PX         0.00187
  39        4PY         0.00279
  40        4PZ         0.00664
  41 4   H  1S          0.05195
  42        2S          0.17917
  43        3S          0.03313
  44        4PX         0.00178
  45        4PY         0.00969
  46        4PZ         0.00065
  47 5   H  1S          0.04698
  48        2S          0.15040
  49        3S         -0.00667
  50        4PX         0.00187
  51        4PY         0.00279
  52        4PZ         0.00664
  53 6   H  1S          0.10305
  54        2S          0.12014
  55        3S         -0.00553
  56        4PX         0.01378
  57        4PY         0.03137
  58        4PZ         0.01844
          Bonding Condensed to atoms (all electrons):
               1          2          3          4          5          6
     1  Si   0.000000   0.195725   0.313527   0.364219   0.313527  -0.019976
     2  O    0.195725   0.000000  -0.024478  -0.019089  -0.024478   0.304314
     3  H    0.313527  -0.024478   0.000000  -0.036110  -0.047647  -0.003282
     4  H    0.364219  -0.019089  -0.036110   0.000000  -0.036110   0.003469
     5  H    0.313527  -0.024478  -0.047647  -0.036110   0.000000  -0.003282
     6  H   -0.019976   0.304314  -0.003282   0.003469  -0.003282   0.000000
 Bonding Mulliken charges:
               1
     1  Si  12.832979
     2  O    7.568007
     3  H    0.797990
     4  H    0.723621
     5  H    0.797990
     6  H    0.718756
 Sum of Bonding Mulliken charges =  23.43934
 Bonding Mulliken charges with hydrogens summed into heavy atoms:
               1
     1  Si  15.152579
     2  O    8.286763
 GSVD:  LWork=       -3828 too small for GESVD, short by       17690 words or       17690 for optimal perf.
 Atomic Valencies and Mayer Atomic Bond Orders:
               1          2          3          4          5          6
     1  Si   3.293659   0.681202   0.844227   0.907516   0.844227   0.016487
     2  O    0.681202   1.703288   0.032876   0.000563   0.032876   0.955771
     3  H    0.844227   0.032876   0.902333   0.010012   0.015941  -0.000724
     4  H    0.907516   0.000563   0.010012   0.939875   0.010012   0.011772
     5  H    0.844227   0.032876   0.015941   0.010012   0.902333  -0.000724
     6  H    0.016487   0.955771  -0.000724   0.011772  -0.000724   0.982583
 Lowdin Atomic Charges:
               1
     1  Si   0.990240
     2  O   -0.381733
     3  H   -0.219246
     4  H   -0.194548
     5  H   -0.219246
     6  H    0.024533
 Sum of Lowdin charges  =  -0.00000
 Lowdin atomic charges with hydrogens summed into heavy atoms:
               1
     1  Si   0.357199
     2  O   -0.357199
     3  H    0.000000
     4  H    0.000000
     5  H    0.000000
     6  H    0.000000
 Sum of Lowdin charges  =  -0.00000
 Dipole moment from Lowdin charges (Debye):
    X=     1.2260    Y=     0.1192    Z=    -0.0000  Tot=     1.2318
 Electronic spatial extent (au):  <R**2>=            142.4599
 Charge=             -0.0000 electrons
 Dipole moment (field-independent basis, Debye):
    X=              0.3373    Y=              1.6575    Z=             -0.0000  Tot=              1.6915
 Quadrupole moment (field-independent basis, Debye-Ang):
   XX=            -20.7376   YY=            -20.7936   ZZ=            -22.1311
   XY=             -3.5366   XZ=             -0.0000   YZ=             -0.0000
 Traceless Quadrupole moment (field-independent basis, Debye-Ang):
   XX=              0.4832   YY=              0.4272   ZZ=             -0.9103
   XY=             -3.5366   XZ=             -0.0000   YZ=             -0.0000
 Octapole moment (field-independent basis, Debye-Ang**2):
  XXX=             -5.2983  YYY=              1.7525  ZZZ=             -0.0000  XYY=             -3.7083
  XXY=              5.5595  XXZ=             -0.0000  XZZ=             -2.0728  YZZ=             -1.2104
  YYZ=             -0.0000  XYZ=             -0.0000
 Hexadecapole moment (field-independent basis, Debye-Ang**3):
 XXXX=           -105.1644 YYYY=            -47.5572 ZZZZ=            -47.5982 XXXY=            -11.1959
 XXXZ=             -0.0000 YYYX=             -3.4104 YYYZ=             -0.0000 ZZZX=             -0.0000
 ZZZY=             -0.0000 XXYY=            -25.9955 XXZZ=            -28.9480 YYZZ=            -16.2441
 XXYZ=             -0.0000 YYXZ=             -0.0000 ZZXY=             -1.8520
 N-N= 6.428744272482D+01 E-N=-1.001439180941D+03  KE= 3.665148724783D+02
 Orbital energies and kinetic energies (alpha):
                                 1                 2
   1         O               -66.134489         92.132742
   2         O               -19.117496         29.131990
   3         O                -5.309620         13.026666
   4         O                -3.669635         12.201735
   5         O                -3.666368         12.213701
   6         O                -3.666312         12.214503
   7         O                -1.011233          2.711067
   8         O                -0.577465          1.698611
   9         O                -0.478069          1.619256
  10         O                -0.384212          1.300905
  11         O                -0.381113          1.542131
  12         O                -0.329040          1.646183
  13         O                -0.303941          1.817947
  14         V                -0.006032          0.837281
  15         V                 0.055616          1.092643
  16         V                 0.065540          0.631179
  17         V                 0.076800          0.723982
  18         V                 0.077859          0.831708
  19         V                 0.140450          0.802936
  20         V                 0.142683          0.791881
  21         V                 0.237710          1.545159
  22         V                 0.286748          1.006982
  23         V                 0.348755          0.996216
  24         V                 0.367011          1.016401
  25         V                 0.431407          1.678662
  26         V                 0.452509          1.779646
  27         V                 0.798842          2.465519
  28         V                 0.805751          2.641995
  29         V                 0.907607          2.617828
  30         V                 0.955337          3.457167
  31         V                 0.964028          3.519617
  32         V                 0.968787          3.160877
  33         V                 1.194112          3.579954
  34         V                 1.249107          1.905787
  35         V                 1.266484          1.893595
  36         V                 1.276259          1.958776
  37         V                 1.363733          2.059006
  38         V                 1.450293          2.497153
  39         V                 1.473751          2.592392
  40         V                 1.552348          2.723550
  41         V                 1.650946          2.669305
  42         V                 1.676457          2.791643
  43         V                 1.678037          2.725330
  44         V                 1.774327          3.150197
  45         V                 2.033806          3.977760
  46         V                 2.352422          4.004695
  47         V                 2.368335          4.018790
  48         V                 2.402590          3.806450
  49         V                 2.492423          4.188686
  50         V                 4.796764         11.676847
  51         V                 4.823534         11.991543
  52         V                 5.129609         12.260748
  53         V                 5.526953         20.664404
  54         V                11.280274         36.686164
  55         V                11.280489         36.670772
  56         V                11.293183         36.695215
  57         V                49.801022        123.755108
  58         V               140.943466        365.802799
 Total kinetic energy from orbitals= 3.665148724783D+02
 Calling FoFJK, ICntrl=      2127 FMM=F ISym2X=0 I1Cent= 0 IOpClX= 0 NMat=1 NMatS=1 NMatT=0.
 -------------------------------------------------------------------
 Center     Atomic                   Forces (Hartrees/Bohr)
 Number     Number              X              Y              Z
 -------------------------------------------------------------------
      1       14           0.039653574   -0.001731525    0.000000000
      2        8          -0.031740286    0.006868882   -0.000000000
      3        1          -0.001045472   -0.001293264   -0.002563989
      4        1          -0.000795315    0.003046062   -0.000000000
      5        1          -0.001045472   -0.001293264    0.002563989
      6        1          -0.005027030   -0.005596892    0.000000000
 -------------------------------------------------------------------
 Cartesian Forces:  Max     0.039653574 RMS     0.012281915

 GradGradGradGradGradGradGradGradGradGradGradGradGradGradGradGradGradGrad
 Berny optimization.
 FormGI is forming the generalized inverse of G from B-inverse, IUseBI=4.
 Internal  Forces:  Max     0.036498059 RMS     0.010128956
 Search for a local minimum.
 Step number   1 out of a maximum of  100
 All quantities printed in internal units (Hartrees-Bohrs-Radians)
 Mixed Optimization -- RFO/linear search
 Second derivative matrix not updated -- first step.
 The second derivative matrix:
                          R1        R2        R3        R4        R5
           R1           0.40457
           R2           0.00000   0.17277
           R3           0.00000   0.00000   0.17758
           R4           0.00000   0.00000   0.00000   0.17277
           R5           0.00000   0.00000   0.00000   0.00000   0.54776
           A1           0.00000   0.00000   0.00000   0.00000   0.00000
           A2           0.00000   0.00000   0.00000   0.00000   0.00000
           A3           0.00000   0.00000   0.00000   0.00000   0.00000
           A4           0.00000   0.00000   0.00000   0.00000   0.00000
           A5           0.00000   0.00000   0.00000   0.00000   0.00000
           A6           0.00000   0.00000   0.00000   0.00000   0.00000
           A7           0.00000   0.00000   0.00000   0.00000   0.00000
           D1           0.00000   0.00000   0.00000   0.00000   0.00000
           D2           0.00000   0.00000   0.00000   0.00000   0.00000
           D3           0.00000   0.00000   0.00000   0.00000   0.00000
                          A1        A2        A3        A4        A5
           A1           0.16000
           A2           0.00000   0.16000
           A3           0.00000   0.00000   0.16000
           A4           0.00000   0.00000   0.00000   0.16000
           A5           0.00000   0.00000   0.00000   0.00000   0.16000
           A6           0.00000   0.00000   0.00000   0.00000   0.00000
           A7           0.00000   0.00000   0.00000   0.00000   0.00000
           D1           0.00000   0.00000   0.00000   0.00000   0.00000
           D2           0.00000   0.00000   0.00000   0.00000   0.00000
           D3           0.00000   0.00000   0.00000   0.00000   0.00000
                          A6        A7        D1        D2        D3
           A6           0.16000
           A7           0.00000   0.16000
           D1           0.00000   0.00000   0.03479
           D2           0.00000   0.00000   0.00000   0.03479
           D3           0.00000   0.00000   0.00000   0.00000   0.03479
 ITU=  0
     Eigenvalues ---    0.03479   0.10782   0.11315   0.16000   0.16000
     Eigenvalues ---    0.16000   0.16000   0.17277   0.17277   0.17758
     Eigenvalues ---    0.40457   0.54776
 RFO step:  Lambda=-4.48349365D-03 EMin= 3.47947575D-02
 Linear search not attempted -- first point.
 Iteration  1 RMS(Cart)=  0.04842410 RMS(Int)=  0.00100171
 Iteration  2 RMS(Cart)=  0.00081519 RMS(Int)=  0.00000311
 Iteration  3 RMS(Cart)=  0.00000008 RMS(Int)=  0.00000311
 Variable       Old X    -DE/DX   Delta X   Delta X   Delta X     New X
                                 (Linear)    (Quad)   (Total)
    R1        3.14638   0.03650   0.00000   0.08923   0.08923   3.23560
    R2        2.81705  -0.00305   0.00000  -0.01720  -0.01720   2.79985
    R3        2.79742  -0.00313   0.00000  -0.01717  -0.01717   2.78024
    R4        2.81705  -0.00305   0.00000  -0.01720  -0.01720   2.79985
    R5        1.82031  -0.00208   0.00000  -0.00377  -0.00377   1.81655
    A1        1.96088  -0.00021   0.00000  -0.00162  -0.00162   1.95926
    A2        1.84889   0.00090   0.00000   0.00617   0.00616   1.85506
    A3        1.96088  -0.00021   0.00000  -0.00162  -0.00162   1.95926
    A4        1.90891  -0.00007   0.00000   0.00022   0.00021   1.90912
    A5        1.87487  -0.00033   0.00000  -0.00318  -0.00319   1.87169
    A6        1.90891  -0.00007   0.00000   0.00022   0.00021   1.90912
    A7        2.03817   0.01315   0.00000   0.07993   0.07993   2.11810
    D1        1.05829  -0.00037   0.00000  -0.00326  -0.00325   1.05503
    D2        3.14159   0.00000   0.00000   0.00000   0.00000   3.14159
    D3       -1.05829   0.00037   0.00000   0.00326   0.00325  -1.05503
         Item               Value     Threshold  Converged?
 Maximum Force            0.036498     0.000015     NO 
 RMS     Force            0.010129     0.000010     NO 
 Maximum Displacement     0.139794     0.000060     NO 
 RMS     Displacement     0.048041     0.000040     NO 
 Predicted change in Energy=-2.276101D-03
 GradGradGradGradGradGradGradGradGradGradGradGradGradGradGradGradGradGrad

                          Input orientation:                          
 ---------------------------------------------------------------------
 Center     Atomic      Atomic             Coordinates (Angstroms)
 Number     Number       Type             X           Y           Z
 ---------------------------------------------------------------------
      1         14           0        0.494440    0.014162   -0.000000
      2          8           0       -1.212908   -0.114724   -0.000000
      3          1           0        1.003129    0.730773    1.192848
      4          1           0        1.012181   -1.362971    0.000000
      5          1           0        1.003129    0.730773   -1.192848
      6          1           0       -1.773515    0.666155    0.000000
 ---------------------------------------------------------------------
                    Distance matrix (angstroms):
                    1          2          3          4          5
     1  Si   0.000000
     2  O    1.712207   0.000000
     3  H    1.481615   2.654915   0.000000
     4  H    1.471241   2.551302   2.409717   0.000000
     5  H    1.481615   2.654915   2.385696   2.409717   0.000000
     6  H    2.359813   0.961276   3.022716   3.446368   3.022716
                    6
     6  H    0.000000
 Symmetry turned off by external request.
 Stoichiometry    H4OSi
 Framework group  CS[SG(H2OSi),X(H2)]
 Deg. of freedom     8
 Full point group                 CS      NOp   2
 Rotational constants (GHZ):          78.6914433          12.9153089          12.6927237
 Standard basis: 6-311G(3d2f,3p2d) (5D, 7F)
    58 basis functions,    98 primitive gaussians,    58 cartesian basis functions
    13 alpha electrons       13 beta electrons
       nuclear repulsion energy        63.2074958023 Hartrees.
 NAtoms=    6 NActive=    6 NUniq=    6 SFac= 1.00D+00 NAtFMM=   60 NAOKFM=F Big=F
 Integral buffers will be    131072 words long.
 Raffenetti 2 integral format.
 Two-electron integral symmetry is turned off.
 One-electron integrals computed using PRISM.
 NBasis=    58 RedAO= T EigKep=  1.28D-02  NBF=    58
 NBsUse=    58 1.00D-06 EigRej= -1.00D+00 NBFU=    58
 Initial guess from the checkpoint file:  "H3SiOH_B3LYP_6-311g.chk"
 B after Tr=     0.012342    0.011309   -0.000000
         Rot=    0.999991   -0.000000   -0.000000    0.004184 Ang=   0.48 deg.
 ExpMin= 6.54D-02 ExpMax= 6.94D+04 ExpMxC= 2.33D+03 IAcc=2 IRadAn=         4 AccDes= 0.00D+00
 Harris functional with IExCor=  402 and IRadAn=       4 diagonalized for initial guess.
 HarFok:  IExCor=  402 AccDes= 0.00D+00 IRadAn=         4 IDoV= 1 UseB2=F ITyADJ=14
 ICtDFT=  3500011 ScaDFX=  1.000000  1.000000  1.000000  1.000000
 FoFCou: FMM=F IPFlag=           0 FMFlag=      100000 FMFlg1=           0
         NFxFlg=           0 DoJE=T BraDBF=F KetDBF=T FulRan=T
         wScrn=  0.000000 ICntrl=       500 IOpCl=  0 I1Cent=   200000004 NGrid=           0
         NMat0=    1 NMatS0=      1 NMatT0=    0 NMatD0=    1 NMtDS0=    0 NMtDT0=    0
 Symmetry not used in FoFCou.
 Keep R1 ints in memory in canonical form, NReq=22521086.
 Requested convergence on RMS density matrix=1.00D-08 within 128 cycles.
 Requested convergence on MAX density matrix=1.00D-06.
 Requested convergence on             energy=1.00D-06.
 No special actions if energy rises.
 Integral accuracy reduced to 1.0D-05 until final iterations.
 Initial convergence to 1.0D-05 achieved.  Increase integral accuracy.
 SCF Done:  E(RB3LYP) =  -367.160872794     A.U. after   11 cycles
            NFock= 11  Conv=0.31D-08     -V/T= 2.0020
 Calling FoFJK, ICntrl=      2127 FMM=F ISym2X=0 I1Cent= 0 IOpClX= 0 NMat=1 NMatS=1 NMatT=0.
 -------------------------------------------------------------------
 Center     Atomic                   Forces (Hartrees/Bohr)
 Number     Number              X              Y              Z
 -------------------------------------------------------------------
      1       14           0.006831856    0.001157641    0.000000000
      2        8          -0.004626284    0.001302071    0.000000000
      3        1          -0.000565572   -0.000182293    0.000095808
      4        1          -0.001190077   -0.000275541    0.000000000
      5        1          -0.000565572   -0.000182293   -0.000095808
      6        1           0.000115648   -0.001819585    0.000000000
 -------------------------------------------------------------------
 Cartesian Forces:  Max     0.006831856 RMS     0.002063618

 GradGradGradGradGradGradGradGradGradGradGradGradGradGradGradGradGradGrad
 Berny optimization.
 Using GEDIIS/GDIIS optimizer.
 FormGI is forming the generalized inverse of G from B-inverse, IUseBI=4.
 Internal  Forces:  Max     0.004532954 RMS     0.001538778
 Search for a local minimum.
 Step number   2 out of a maximum of  100
 All quantities printed in internal units (Hartrees-Bohrs-Radians)
 Mixed Optimization -- RFO/linear search
 Update second derivatives using D2CorX and points    1    2
 DE= -2.45D-03 DEPred=-2.28D-03 R= 1.08D+00
 TightC=F SS=  1.41D+00  RLast= 1.24D-01 DXNew= 5.0454D-01 3.7139D-01
 Trust test= 1.08D+00 RLast= 1.24D-01 DXMaxT set to 3.71D-01
 The second derivative matrix:
                          R1        R2        R3        R4        R5
           R1           0.36851
           R2           0.00126   0.17282
           R3           0.00088   0.00009   0.17770
           R4           0.00126   0.00005   0.00009   0.17282
           R5           0.01247  -0.00100  -0.00102  -0.00100   0.54687
           A1           0.00367  -0.00031  -0.00032  -0.00031  -0.00015
           A2           0.01805  -0.00166  -0.00174  -0.00166   0.00002
           A3           0.00367  -0.00031  -0.00032  -0.00031  -0.00015
           A4          -0.00926   0.00082   0.00086   0.00082   0.00017
           A5          -0.00755   0.00070   0.00074   0.00070  -0.00004
           A6          -0.00926   0.00082   0.00086   0.00082   0.00017
           A7          -0.01209   0.00039   0.00025   0.00039   0.00441
           D1          -0.00560   0.00050   0.00053   0.00050   0.00006
           D2           0.00000  -0.00000  -0.00000  -0.00000  -0.00000
           D3           0.00560  -0.00050  -0.00053  -0.00050  -0.00006
                          A1        A2        A3        A4        A5
           A1           0.15999
           A2           0.00021   0.16241
           A3          -0.00001   0.00021   0.15999
           A4          -0.00005  -0.00091  -0.00005   0.16031
           A5          -0.00010  -0.00107  -0.00010   0.00041   0.16047
           A6          -0.00005  -0.00091  -0.00005   0.00031   0.00041
           A7           0.00130   0.00647   0.00130  -0.00330  -0.00271
           D1          -0.00005  -0.00063  -0.00005   0.00023   0.00028
           D2           0.00000   0.00000   0.00000  -0.00000  -0.00000
           D3           0.00005   0.00063   0.00005  -0.00023  -0.00028
                          A6        A7        D1        D2        D3
           A6           0.16031
           A7          -0.00330   0.15596
           D1           0.00023  -0.00200   0.03496
           D2          -0.00000   0.00000  -0.00000   0.03479
           D3          -0.00023   0.00200  -0.00016   0.00000   0.03496
 ITU=  1  0
 Use linear search instead of GDIIS.
     Eigenvalues ---    0.03479   0.10818   0.11284   0.14753   0.16000
     Eigenvalues ---    0.16000   0.16714   0.17277   0.17377   0.17817
     Eigenvalues ---    0.37122   0.54779
 RFO step:  Lambda=-9.34205034D-05 EMin= 3.47947575D-02
 Quartic linear search produced a step of  0.15404.
 Iteration  1 RMS(Cart)=  0.01168104 RMS(Int)=  0.00012232
 Iteration  2 RMS(Cart)=  0.00012265 RMS(Int)=  0.00002707
 Iteration  3 RMS(Cart)=  0.00000001 RMS(Int)=  0.00002707
 Variable       Old X    -DE/DX   Delta X   Delta X   Delta X     New X
                                 (Linear)    (Quad)   (Total)
    R1        3.23560   0.00453   0.01374   0.00184   0.01559   3.25119
    R2        2.79985  -0.00021  -0.00265   0.00054  -0.00211   2.79774
    R3        2.78024  -0.00016  -0.00265   0.00090  -0.00174   2.77850
    R4        2.79985  -0.00021  -0.00265   0.00054  -0.00211   2.79774
    R5        1.81655  -0.00154  -0.00058  -0.00276  -0.00334   1.81321
    A1        1.95926  -0.00040  -0.00025  -0.00217  -0.00245   1.95681
    A2        1.85506  -0.00232   0.00095  -0.01839  -0.01749   1.83757
    A3        1.95926  -0.00040  -0.00025  -0.00217  -0.00245   1.95681
    A4        1.90912   0.00103   0.00003   0.00649   0.00648   1.91560
    A5        1.87169   0.00112  -0.00049   0.01012   0.00961   1.88130
    A6        1.90912   0.00103   0.00003   0.00649   0.00648   1.91560
    A7        2.11810   0.00174   0.01231   0.00372   0.01604   2.13414
    D1        1.05503   0.00044  -0.00050   0.00500   0.00447   1.05950
    D2        3.14159  -0.00000   0.00000  -0.00000   0.00000   3.14159
    D3       -1.05503  -0.00044   0.00050  -0.00500  -0.00447  -1.05950
         Item               Value     Threshold  Converged?
 Maximum Force            0.004533     0.000015     NO 
 RMS     Force            0.001539     0.000010     NO 
 Maximum Displacement     0.022983     0.000060     NO 
 RMS     Displacement     0.011692     0.000040     NO 
 Predicted change in Energy=-8.191217D-05
 GradGradGradGradGradGradGradGradGradGradGradGradGradGradGradGradGradGrad

                          Input orientation:                          
 ---------------------------------------------------------------------
 Center     Atomic      Atomic             Coordinates (Angstroms)
 Number     Number       Type             X           Y           Z
 ---------------------------------------------------------------------
      1         14           0        0.504440    0.019959    0.000000
      2          8           0       -1.210916   -0.112407    0.000000
      3          1           0        1.008557    0.731966    1.196158
      4          1           0        1.000018   -1.364323   -0.000000
      5          1           0        1.008557    0.731966   -1.196158
      6          1           0       -1.784201    0.657008    0.000000
 ---------------------------------------------------------------------
                    Distance matrix (angstroms):
                    1          2          3          4          5
     1  Si   0.000000
     2  O    1.720455   0.000000
     3  H    1.480501   2.658913   0.000000
     4  H    1.470318   2.540772   2.413565   0.000000
     5  H    1.480501   2.658913   2.392317   2.413565   0.000000
     6  H    2.375648   0.959507   3.039063   3.440589   3.039063
                    6
     6  H    0.000000
 Symmetry turned off by external request.
 Stoichiometry    H4OSi
 Framework group  CS[SG(H2OSi),X(H2)]
 Deg. of freedom     8
 Full point group                 CS      NOp   2
 Rotational constants (GHZ):          78.6207339          12.8129426          12.6020401
 Standard basis: 6-311G(3d2f,3p2d) (5D, 7F)
    58 basis functions,    98 primitive gaussians,    58 cartesian basis functions
    13 alpha electrons       13 beta electrons
       nuclear repulsion energy        63.0385535194 Hartrees.
 NAtoms=    6 NActive=    6 NUniq=    6 SFac= 1.00D+00 NAtFMM=   60 NAOKFM=F Big=F
 Integral buffers will be    131072 words long.
 Raffenetti 2 integral format.
 Two-electron integral symmetry is turned off.
 One-electron integrals computed using PRISM.
 NBasis=    58 RedAO= T EigKep=  1.28D-02  NBF=    58
 NBsUse=    58 1.00D-06 EigRej= -1.00D+00 NBFU=    58
 Initial guess from the checkpoint file:  "H3SiOH_B3LYP_6-311g.chk"
 B after Tr=     0.010465    0.006760    0.000000
         Rot=    1.000000   -0.000000    0.000000   -0.000463 Ang=  -0.05 deg.
 ExpMin= 6.54D-02 ExpMax= 6.94D+04 ExpMxC= 2.33D+03 IAcc=2 IRadAn=         4 AccDes= 0.00D+00
 Harris functional with IExCor=  402 and IRadAn=       4 diagonalized for initial guess.
 HarFok:  IExCor=  402 AccDes= 0.00D+00 IRadAn=         4 IDoV= 1 UseB2=F ITyADJ=14
 ICtDFT=  3500011 ScaDFX=  1.000000  1.000000  1.000000  1.000000
 FoFCou: FMM=F IPFlag=           0 FMFlag=      100000 FMFlg1=           0
         NFxFlg=           0 DoJE=T BraDBF=F KetDBF=T FulRan=T
         wScrn=  0.000000 ICntrl=       500 IOpCl=  0 I1Cent=   200000004 NGrid=           0
         NMat0=    1 NMatS0=      1 NMatT0=    0 NMatD0=    1 NMtDS0=    0 NMtDT0=    0
 Symmetry not used in FoFCou.
 Keep R1 ints in memory in canonical form, NReq=22521086.
 Requested convergence on RMS density matrix=1.00D-08 within 128 cycles.
 Requested convergence on MAX density matrix=1.00D-06.
 Requested convergence on             energy=1.00D-06.
 No special actions if energy rises.
 Integral accuracy reduced to 1.0D-05 until final iterations.
 Initial convergence to 1.0D-05 achieved.  Increase integral accuracy.
 SCF Done:  E(RB3LYP) =  -367.160966263     A.U. after    9 cycles
            NFock=  9  Conv=0.91D-08     -V/T= 2.0020
 Calling FoFJK, ICntrl=      2127 FMM=F ISym2X=0 I1Cent= 0 IOpClX= 0 NMat=1 NMatS=1 NMatT=0.
 -------------------------------------------------------------------
 Center     Atomic                   Forces (Hartrees/Bohr)
 Number     Number              X              Y              Z
 -------------------------------------------------------------------
      1       14           0.000480667    0.000241833    0.000000000
      2        8          -0.000151507   -0.000201109    0.000000000
      3        1          -0.000085358    0.000052964    0.000045038
      4        1          -0.000112287   -0.000225904   -0.000000000
      5        1          -0.000085358    0.000052964   -0.000045038
      6        1          -0.000046157    0.000079252   -0.000000000
 -------------------------------------------------------------------
 Cartesian Forces:  Max     0.000480667 RMS     0.000157976

 GradGradGradGradGradGradGradGradGradGradGradGradGradGradGradGradGradGrad
 Berny optimization.
 Using GEDIIS/GDIIS optimizer.
 FormGI is forming the generalized inverse of G from B-inverse, IUseBI=4.
 Internal  Forces:  Max     0.000327518 RMS     0.000145293
 Search for a local minimum.
 Step number   3 out of a maximum of  100
 All quantities printed in internal units (Hartrees-Bohrs-Radians)
 Mixed Optimization -- En-DIIS/RFO-DIIS
 Update second derivatives using D2CorX and points    1    2    3
 DE= -9.35D-05 DEPred=-8.19D-05 R= 1.14D+00
 TightC=F SS=  1.41D+00  RLast= 3.25D-02 DXNew= 6.2460D-01 9.7553D-02
 Trust test= 1.14D+00 RLast= 3.25D-02 DXMaxT set to 3.71D-01
 The second derivative matrix:
                          R1        R2        R3        R4        R5
           R1           0.35459
           R2           0.00231   0.17274
           R3          -0.00240   0.00028   0.17823
           R4           0.00231  -0.00003   0.00028   0.17274
           R5           0.00944  -0.00088   0.00038  -0.00088   0.54996
           A1           0.00427  -0.00036  -0.00015  -0.00036   0.00010
           A2           0.03162  -0.00261  -0.00119  -0.00261  -0.00086
           A3           0.00427  -0.00036  -0.00015  -0.00036   0.00010
           A4          -0.00996   0.00091   0.00033   0.00091  -0.00077
           A5          -0.01949   0.00150   0.00077   0.00150   0.00177
           A6          -0.00996   0.00091   0.00033   0.00091  -0.00077
           A7          -0.01990   0.00095  -0.00092   0.00095   0.00375
           D1           0.00554  -0.00018  -0.00043  -0.00018  -0.00345
           D2          -0.00000   0.00000   0.00000   0.00000   0.00000
           D3          -0.00554   0.00018   0.00043   0.00018   0.00345
                          A1        A2        A3        A4        A5
           A1           0.15998
           A2          -0.00035   0.15517
           A3          -0.00002  -0.00035   0.15998
           A4          -0.00007   0.00025  -0.00007   0.16049
           A5           0.00045   0.00452   0.00045  -0.00087   0.15657
           A6          -0.00007   0.00025  -0.00007   0.00049  -0.00087
           A7           0.00165   0.01266   0.00165  -0.00386  -0.00792
           D1          -0.00064  -0.00442  -0.00064   0.00188   0.00210
           D2           0.00000   0.00000   0.00000  -0.00000  -0.00000
           D3           0.00064   0.00442   0.00064  -0.00188  -0.00210
                          A6        A7        D1        D2        D3
           A6           0.16049
           A7          -0.00386   0.15193
           D1           0.00188   0.00243   0.03594
           D2          -0.00000  -0.00000  -0.00000   0.03479
           D3          -0.00188  -0.00243  -0.00115   0.00000   0.03594
 ITU=  1  1  0
 Use linear search instead of GDIIS.
     Eigenvalues ---    0.03479   0.10879   0.11385   0.13174   0.16000
     Eigenvalues ---    0.16004   0.16680   0.17277   0.17386   0.17850
     Eigenvalues ---    0.36238   0.55045
 RFO step:  Lambda=-1.09104095D-06 EMin= 3.47947575D-02
 Quartic linear search produced a step of  0.07410.
 Iteration  1 RMS(Cart)=  0.00122845 RMS(Int)=  0.00000299
 Iteration  2 RMS(Cart)=  0.00000166 RMS(Int)=  0.00000255
 Iteration  3 RMS(Cart)=  0.00000000 RMS(Int)=  0.00000255
 Variable       Old X    -DE/DX   Delta X   Delta X   Delta X     New X
                                 (Linear)    (Quad)   (Total)
    R1        3.25119   0.00020   0.00116  -0.00022   0.00094   3.25213
    R2        2.79774   0.00003  -0.00016   0.00026   0.00010   2.79784
    R3        2.77850   0.00018  -0.00013   0.00111   0.00098   2.77948
    R4        2.79774   0.00003  -0.00016   0.00026   0.00010   2.79784
    R5        1.81321   0.00010  -0.00025   0.00041   0.00016   1.81337
    A1        1.95681  -0.00010  -0.00018  -0.00052  -0.00070   1.95610
    A2        1.83757  -0.00033  -0.00130  -0.00100  -0.00230   1.83528
    A3        1.95681  -0.00010  -0.00018  -0.00052  -0.00070   1.95610
    A4        1.91560   0.00021   0.00048   0.00092   0.00140   1.91700
    A5        1.88130   0.00013   0.00071   0.00024   0.00095   1.88225
    A6        1.91560   0.00021   0.00048   0.00092   0.00140   1.91700
    A7        2.13414  -0.00004   0.00119  -0.00099   0.00020   2.13434
    D1        1.05950   0.00001   0.00033  -0.00022   0.00011   1.05961
    D2        3.14159   0.00000   0.00000   0.00000   0.00000   3.14159
    D3       -1.05950  -0.00001  -0.00033   0.00022  -0.00011  -1.05961
         Item               Value     Threshold  Converged?
 Maximum Force            0.000328     0.000015     NO 
 RMS     Force            0.000145     0.000010     NO 
 Maximum Displacement     0.002705     0.000060     NO 
 RMS     Displacement     0.001229     0.000040     NO 
 Predicted change in Energy=-9.851441D-07
 GradGradGradGradGradGradGradGradGradGradGradGradGradGradGradGradGradGrad

                          Input orientation:                          
 ---------------------------------------------------------------------
 Center     Atomic      Atomic             Coordinates (Angstroms)
 Number     Number       Type             X           Y           Z
 ---------------------------------------------------------------------
      1         14           0        0.505490    0.020404   -0.000000
      2          8           0       -1.210310   -0.112649   -0.000000
      3          1           0        1.008389    0.732614    1.196618
      4          1           0        0.998587   -1.365316    0.000000
      5          1           0        1.008389    0.732614   -1.196618
      6          1           0       -1.784091    0.656502    0.000000
 ---------------------------------------------------------------------
                    Distance matrix (angstroms):
                    1          2          3          4          5
     1  Si   0.000000
     2  O    1.720951   0.000000
     3  H    1.480556   2.658757   0.000000
     4  H    1.470838   2.539370   2.415223   0.000000
     5  H    1.480556   2.658757   2.393236   2.415223   0.000000
     6  H    2.376300   0.959593   3.039019   3.439629   3.039019
                    6
     6  H    0.000000
 Symmetry turned off by external request.
 Stoichiometry    H4OSi
 Framework group  CS[SG(H2OSi),X(H2)]
 Deg. of freedom     8
 Full point group                 CS      NOp   2
 Rotational constants (GHZ):          78.5408625          12.8090860          12.5976490
 Standard basis: 6-311G(3d2f,3p2d) (5D, 7F)
    58 basis functions,    98 primitive gaussians,    58 cartesian basis functions
    13 alpha electrons       13 beta electrons
       nuclear repulsion energy        63.0259997965 Hartrees.
 NAtoms=    6 NActive=    6 NUniq=    6 SFac= 1.00D+00 NAtFMM=   60 NAOKFM=F Big=F
 Integral buffers will be    131072 words long.
 Raffenetti 2 integral format.
 Two-electron integral symmetry is turned off.
 One-electron integrals computed using PRISM.
 NBasis=    58 RedAO= T EigKep=  1.29D-02  NBF=    58
 NBsUse=    58 1.00D-06 EigRej= -1.00D+00 NBFU=    58
 Initial guess from the checkpoint file:  "H3SiOH_B3LYP_6-311g.chk"
 B after Tr=     0.001303    0.000319   -0.000000
         Rot=    1.000000   -0.000000   -0.000000   -0.000110 Ang=  -0.01 deg.
 Keep R1 ints in memory in canonical form, NReq=22521086.
 Requested convergence on RMS density matrix=1.00D-08 within 128 cycles.
 Requested convergence on MAX density matrix=1.00D-06.
 Requested convergence on             energy=1.00D-06.
 No special actions if energy rises.
 SCF Done:  E(RB3LYP) =  -367.160967326     A.U. after    7 cycles
            NFock=  7  Conv=0.21D-08     -V/T= 2.0020
 Calling FoFJK, ICntrl=      2127 FMM=F ISym2X=0 I1Cent= 0 IOpClX= 0 NMat=1 NMatS=1 NMatT=0.
 -------------------------------------------------------------------
 Center     Atomic                   Forces (Hartrees/Bohr)
 Number     Number              X              Y              Z
 -------------------------------------------------------------------
      1       14           0.000076414    0.000011915    0.000000000
      2        8          -0.000071800   -0.000097528   -0.000000000
      3        1          -0.000007720    0.000018705   -0.000009527
      4        1          -0.000015877    0.000015194   -0.000000000
      5        1          -0.000007720    0.000018705    0.000009527
      6        1           0.000026703    0.000033010   -0.000000000
 -------------------------------------------------------------------
 Cartesian Forces:  Max     0.000097528 RMS     0.000036465

 GradGradGradGradGradGradGradGradGradGradGradGradGradGradGradGradGradGrad
 Berny optimization.
 Using GEDIIS/GDIIS optimizer.
 FormGI is forming the generalized inverse of G from B-inverse, IUseBI=4.
 Internal  Forces:  Max     0.000094907 RMS     0.000031242
 Search for a local minimum.
 Step number   4 out of a maximum of  100
 All quantities printed in internal units (Hartrees-Bohrs-Radians)
 Mixed Optimization -- En-DIIS/RFO-DIIS
 Swapping is turned off.
 Update second derivatives using D2CorX and points    1    2    3    4
 DE= -1.06D-06 DEPred=-9.85D-07 R= 1.08D+00
 TightC=F SS=  1.41D+00  RLast= 3.61D-03 DXNew= 6.2460D-01 1.0833D-02
 Trust test= 1.08D+00 RLast= 3.61D-03 DXMaxT set to 3.71D-01
 The second derivative matrix:
                          R1        R2        R3        R4        R5
           R1           0.33799
           R2           0.00250   0.17288
           R3          -0.00187   0.00093   0.18261
           R4           0.00250   0.00011   0.00093   0.17288
           R5           0.00821  -0.00120   0.00017  -0.00120   0.55034
           A1           0.00708  -0.00066  -0.00148  -0.00066   0.00108
           A2           0.03600  -0.00288  -0.00313  -0.00288   0.00257
           A3           0.00708  -0.00066  -0.00148  -0.00066   0.00108
           A4          -0.01849   0.00112   0.00039   0.00112  -0.00391
           A5          -0.01387   0.00195   0.00501   0.00195   0.00224
           A6          -0.01849   0.00112   0.00039   0.00112  -0.00391
           A7          -0.01044   0.00236   0.00833   0.00236   0.00775
           D1          -0.00172   0.00024  -0.00085   0.00024  -0.00556
           D2          -0.00000  -0.00000  -0.00000  -0.00000   0.00000
           D3           0.00172  -0.00024   0.00085  -0.00024   0.00556
                          A1        A2        A3        A4        A5
           A1           0.15998
           A2          -0.00097   0.14821
           A3          -0.00002  -0.00097   0.15998
           A4           0.00129   0.00559   0.00129   0.15545
           A5          -0.00143   0.00245  -0.00143   0.00069   0.15931
           A6           0.00129   0.00559   0.00129  -0.00455   0.00069
           A7          -0.00324  -0.00265  -0.00324   0.00477   0.00005
           D1          -0.00016  -0.00475  -0.00016   0.00106   0.00304
           D2           0.00000   0.00000   0.00000  -0.00000  -0.00000
           D3           0.00016   0.00475   0.00016  -0.00106  -0.00304
                          A6        A7        D1        D2        D3
           A6           0.15545
           A7           0.00477   0.15522
           D1           0.00106   0.00205   0.03607
           D2          -0.00000  -0.00000  -0.00000   0.03479
           D3          -0.00106  -0.00205  -0.00128   0.00000   0.03607
 ITU=  1  1  1  0
     Eigenvalues ---    0.03479   0.10973   0.11398   0.12975   0.15190
     Eigenvalues ---    0.16000   0.16122   0.17277   0.17368   0.18646
     Eigenvalues ---    0.34944   0.55093
 En-DIIS/RFO-DIIS/Sim-DIIS IScMMF=       -3 using points:     4    3
 RFO step:  Lambda=-8.49678547D-08.
 DidBck=F Rises=F RFO-DIIS coefs:    1.09777   -0.09777
 Iteration  1 RMS(Cart)=  0.00026451 RMS(Int)=  0.00000008
 Iteration  2 RMS(Cart)=  0.00000006 RMS(Int)=  0.00000006
 Variable       Old X    -DE/DX   Delta X   Delta X   Delta X     New X
                                 (Linear)    (Quad)   (Total)
    R1        3.25213   0.00005   0.00009   0.00008   0.00017   3.25230
    R2        2.79784  -0.00000   0.00001  -0.00003  -0.00002   2.79783
    R3        2.77948  -0.00002   0.00010  -0.00016  -0.00007   2.77941
    R4        2.79784  -0.00000   0.00001  -0.00003  -0.00002   2.79783
    R5        1.81337   0.00002   0.00002   0.00003   0.00004   1.81341
    A1        1.95610   0.00000  -0.00007   0.00003  -0.00003   1.95607
    A2        1.83528  -0.00004  -0.00022  -0.00008  -0.00030   1.83497
    A3        1.95610   0.00000  -0.00007   0.00003  -0.00003   1.95607
    A4        1.91700   0.00003   0.00014   0.00010   0.00024   1.91724
    A5        1.88225  -0.00001   0.00009  -0.00018  -0.00009   1.88216
    A6        1.91700   0.00003   0.00014   0.00010   0.00024   1.91724
    A7        2.13434  -0.00009   0.00002  -0.00064  -0.00062   2.13372
    D1        1.05961  -0.00001   0.00001  -0.00009  -0.00008   1.05953
    D2        3.14159   0.00000  -0.00000   0.00000   0.00000   3.14159
    D3       -1.05961   0.00001  -0.00001   0.00009   0.00008  -1.05953
         Item               Value     Threshold  Converged?
 Maximum Force            0.000095     0.000015     NO 
 RMS     Force            0.000031     0.000010     NO 
 Maximum Displacement     0.000658     0.000060     NO 
 RMS     Displacement     0.000265     0.000040     NO 
 Predicted change in Energy=-4.691113D-08
 GradGradGradGradGradGradGradGradGradGradGradGradGradGradGradGradGradGrad

                          Input orientation:                          
 ---------------------------------------------------------------------
 Center     Atomic      Atomic             Coordinates (Angstroms)
 Number     Number       Type             X           Y           Z
 ---------------------------------------------------------------------
      1         14           0        0.505545    0.020381   -0.000000
      2          8           0       -1.210328   -0.112890   -0.000000
      3          1           0        1.008298    0.732753    1.196571
      4          1           0        0.998384   -1.365393    0.000000
      5          1           0        1.008298    0.732753   -1.196571
      6          1           0       -1.783743    0.656564    0.000000
 ---------------------------------------------------------------------
                    Distance matrix (angstroms):
                    1          2          3          4          5
     1  Si   0.000000
     2  O    1.721041   0.000000
     3  H    1.480546   2.658796   0.000000
     4  H    1.470802   2.539128   2.415388   0.000000
     5  H    1.480546   2.658796   2.393143   2.415388   0.000000
     6  H    2.376041   0.959616   3.038599   3.439264   3.038599
                    6
     6  H    0.000000
 Symmetry turned off by external request.
 Stoichiometry    H4OSi
 Framework group  CS[SG(H2OSi),X(H2)]
 Deg. of freedom     8
 Full point group                 CS      NOp   2
 Rotational constants (GHZ):          78.5303519          12.8088933          12.5970504
 Standard basis: 6-311G(3d2f,3p2d) (5D, 7F)
    58 basis functions,    98 primitive gaussians,    58 cartesian basis functions
    13 alpha electrons       13 beta electrons
       nuclear repulsion energy        63.0247698297 Hartrees.
 NAtoms=    6 NActive=    6 NUniq=    6 SFac= 1.00D+00 NAtFMM=   60 NAOKFM=F Big=F
 Integral buffers will be    131072 words long.
 Raffenetti 2 integral format.
 Two-electron integral symmetry is turned off.
 One-electron integrals computed using PRISM.
 NBasis=    58 RedAO= T EigKep=  1.29D-02  NBF=    58
 NBsUse=    58 1.00D-06 EigRej= -1.00D+00 NBFU=    58
 Initial guess from the checkpoint file:  "H3SiOH_B3LYP_6-311g.chk"
 B after Tr=     0.000044   -0.000137   -0.000000
         Rot=    1.000000   -0.000000    0.000000   -0.000035 Ang=  -0.00 deg.
 Keep R1 ints in memory in canonical form, NReq=22521086.
 Requested convergence on RMS density matrix=1.00D-08 within 128 cycles.
 Requested convergence on MAX density matrix=1.00D-06.
 Requested convergence on             energy=1.00D-06.
 No special actions if energy rises.
 SCF Done:  E(RB3LYP) =  -367.160967396     A.U. after    6 cycles
            NFock=  6  Conv=0.35D-08     -V/T= 2.0020
 Calling FoFJK, ICntrl=      2127 FMM=F ISym2X=0 I1Cent= 0 IOpClX= 0 NMat=1 NMatS=1 NMatT=0.
 -------------------------------------------------------------------
 Center     Atomic                   Forces (Hartrees/Bohr)
 Number     Number              X              Y              Z
 -------------------------------------------------------------------
      1       14           0.000038334    0.000006627    0.000000000
      2        8          -0.000060099   -0.000058006   -0.000000000
      3        1          -0.000001531    0.000011773   -0.000004543
      4        1           0.000009789    0.000012402   -0.000000000
      5        1          -0.000001531    0.000011773    0.000004543
      6        1           0.000015037    0.000015431    0.000000000
 -------------------------------------------------------------------
 Cartesian Forces:  Max     0.000060099 RMS     0.000023006

 GradGradGradGradGradGradGradGradGradGradGradGradGradGradGradGradGradGrad
 Berny optimization.
 Using GEDIIS/GDIIS optimizer.
 FormGI is forming the generalized inverse of G from B-inverse, IUseBI=4.
 Internal  Forces:  Max     0.000058832 RMS     0.000019785
 Search for a local minimum.
 Step number   5 out of a maximum of  100
 All quantities printed in internal units (Hartrees-Bohrs-Radians)
 Mixed Optimization -- En-DIIS/RFO-DIIS
 Swapping is turned off.
 Update second derivatives using D2CorX and points    1    2    3    4    5
 DE= -6.98D-08 DEPred=-4.69D-08 R= 1.49D+00
 Trust test= 1.49D+00 RLast= 8.03D-04 DXMaxT set to 3.71D-01
 The second derivative matrix:
                          R1        R2        R3        R4        R5
           R1           0.31695
           R2           0.00207   0.17316
           R3          -0.00108   0.00166   0.18445
           R4           0.00207   0.00039   0.00166   0.17316
           R5          -0.00161  -0.00087   0.00341  -0.00087   0.54917
           A1           0.01022  -0.00072  -0.00176  -0.00072   0.00060
           A2           0.05742  -0.00256  -0.00372  -0.00256   0.00144
           A3           0.01022  -0.00072  -0.00176  -0.00072   0.00060
           A4          -0.03438   0.00096   0.00120   0.00096  -0.00591
           A5          -0.01076   0.00207   0.00449   0.00207   0.00779
           A6          -0.03438   0.00096   0.00120   0.00096  -0.00591
           A7           0.03072   0.00159   0.00044   0.00159   0.02248
           D1          -0.00060   0.00018  -0.00191   0.00018  -0.00741
           D2           0.00000   0.00000   0.00000   0.00000  -0.00000
           D3           0.00060  -0.00018   0.00191  -0.00018   0.00741
                          A1        A2        A3        A4        A5
           A1           0.16062
           A2           0.00341   0.17484
           A3           0.00062   0.00341   0.16062
           A4          -0.00087  -0.00821  -0.00087   0.16103
           A5          -0.00282  -0.00583  -0.00282   0.00766   0.15694
           A6          -0.00087  -0.00821  -0.00087   0.00103   0.00766
           A7          -0.00267  -0.00836  -0.00267   0.01622  -0.01692
           D1           0.00018  -0.00478   0.00018   0.00081   0.00294
           D2           0.00000   0.00000   0.00000  -0.00000  -0.00000
           D3          -0.00018   0.00478  -0.00018  -0.00081  -0.00294
                          A6        A7        D1        D2        D3
           A6           0.16103
           A7           0.01622   0.08751
           D1           0.00081   0.00112   0.03656
           D2          -0.00000   0.00000   0.00000   0.03479
           D3          -0.00081  -0.00112  -0.00176  -0.00000   0.03656
 ITU=  0  1  1  1  0
     Eigenvalues ---    0.03479   0.06486   0.11399   0.11522   0.15853
     Eigenvalues ---    0.16000   0.16088   0.17277   0.17463   0.18656
     Eigenvalues ---    0.35435   0.55038
 En-DIIS/RFO-DIIS/Sim-DIIS IScMMF=       -3 using points:     5    4    3
 RFO step:  Lambda=-6.85985082D-08.
 DIIS inversion failure, remove point   3.
 RFO-DIIS uses    2 points instead of    3
 DidBck=F Rises=F RFO-DIIS coefs:    2.14928   -1.14928    0.00000
 Iteration  1 RMS(Cart)=  0.00030966 RMS(Int)=  0.00000014
 Iteration  2 RMS(Cart)=  0.00000013 RMS(Int)=  0.00000000
 Variable       Old X    -DE/DX   Delta X   Delta X   Delta X     New X
                                 (Linear)    (Quad)   (Total)
    R1        3.25230   0.00004   0.00020   0.00008   0.00027   3.25257
    R2        2.79783  -0.00000  -0.00002   0.00002   0.00000   2.79783
    R3        2.77941  -0.00001  -0.00008   0.00005  -0.00003   2.77938
    R4        2.79783  -0.00000  -0.00002   0.00002   0.00000   2.79783
    R5        1.81341   0.00001   0.00005   0.00001   0.00006   1.81347
    A1        1.95607   0.00000  -0.00004   0.00003  -0.00001   1.95606
    A2        1.83497   0.00000  -0.00035   0.00024  -0.00010   1.83487
    A3        1.95607   0.00000  -0.00004   0.00003  -0.00001   1.95606
    A4        1.91724   0.00000   0.00027  -0.00011   0.00016   1.91740
    A5        1.88216  -0.00001  -0.00010  -0.00007  -0.00018   1.88199
    A6        1.91724   0.00000   0.00027  -0.00011   0.00016   1.91740
    A7        2.13372  -0.00006  -0.00071  -0.00018  -0.00088   2.13284
    D1        1.05953  -0.00001  -0.00010  -0.00003  -0.00012   1.05941
    D2        3.14159   0.00000  -0.00000   0.00000   0.00000   3.14159
    D3       -1.05953   0.00001   0.00010   0.00003   0.00012  -1.05941
         Item               Value     Threshold  Converged?
 Maximum Force            0.000059     0.000015     NO 
 RMS     Force            0.000020     0.000010     NO 
 Maximum Displacement     0.000810     0.000060     NO 
 RMS     Displacement     0.000310     0.000040     NO 
 Predicted change in Energy=-3.429928D-08
 GradGradGradGradGradGradGradGradGradGradGradGradGradGradGradGradGradGrad

                          Input orientation:                          
 ---------------------------------------------------------------------
 Center     Atomic      Atomic             Coordinates (Angstroms)
 Number     Number       Type             X           Y           Z
 ---------------------------------------------------------------------
      1         14           0        0.505526    0.020298    0.000000
      2          8           0       -1.210476   -0.113172   -0.000000
      3          1           0        1.008176    0.732874    1.196495
      4          1           0        0.998366   -1.365457   -0.000000
      5          1           0        1.008176    0.732874   -1.196495
      6          1           0       -1.783314    0.656752    0.000000
 ---------------------------------------------------------------------
                    Distance matrix (angstroms):
                    1          2          3          4          5
     1  Si   0.000000
     2  O    1.721186   0.000000
     3  H    1.480548   2.658912   0.000000
     4  H    1.470785   2.539135   2.415511   0.000000
     5  H    1.480548   2.658912   2.392991   2.415511   0.000000
     6  H    2.375682   0.959649   3.038061   3.439052   3.038061
                    6
     6  H    0.000000
 Symmetry turned off by external request.
 Stoichiometry    H4OSi
 Framework group  CS[SG(H2OSi),X(H2)]
 Deg. of freedom     8
 Full point group                 CS      NOp   2
 Rotational constants (GHZ):          78.5195033          12.8080348          12.5957113
 Standard basis: 6-311G(3d2f,3p2d) (5D, 7F)
    58 basis functions,    98 primitive gaussians,    58 cartesian basis functions
    13 alpha electrons       13 beta electrons
       nuclear repulsion energy        63.0221647078 Hartrees.
 NAtoms=    6 NActive=    6 NUniq=    6 SFac= 1.00D+00 NAtFMM=   60 NAOKFM=F Big=F
 Integral buffers will be    131072 words long.
 Raffenetti 2 integral format.
 Two-electron integral symmetry is turned off.
 One-electron integrals computed using PRISM.
 NBasis=    58 RedAO= T EigKep=  1.29D-02  NBF=    58
 NBsUse=    58 1.00D-06 EigRej= -1.00D+00 NBFU=    58
 Initial guess from the checkpoint file:  "H3SiOH_B3LYP_6-311g.chk"
 B after Tr=    -0.000093   -0.000216    0.000000
         Rot=    1.000000   -0.000000    0.000000   -0.000031 Ang=  -0.00 deg.
 Keep R1 ints in memory in canonical form, NReq=22521086.
 Requested convergence on RMS density matrix=1.00D-08 within 128 cycles.
 Requested convergence on MAX density matrix=1.00D-06.
 Requested convergence on             energy=1.00D-06.
 No special actions if energy rises.
 SCF Done:  E(RB3LYP) =  -367.160967435     A.U. after    6 cycles
            NFock=  6  Conv=0.53D-08     -V/T= 2.0020
 Calling FoFJK, ICntrl=      2127 FMM=F ISym2X=0 I1Cent= 0 IOpClX= 0 NMat=1 NMatS=1 NMatT=0.
 -------------------------------------------------------------------
 Center     Atomic                   Forces (Hartrees/Bohr)
 Number     Number              X              Y              Z
 -------------------------------------------------------------------
      1       14           0.000010360    0.000005577   -0.000000000
      2        8          -0.000024266   -0.000014089    0.000000000
      3        1          -0.000002506    0.000002688    0.000000576
      4        1           0.000019239    0.000011929    0.000000000
      5        1          -0.000002506    0.000002688   -0.000000576
      6        1          -0.000000320   -0.000008794   -0.000000000
 -------------------------------------------------------------------
 Cartesian Forces:  Max     0.000024266 RMS     0.000009260

 GradGradGradGradGradGradGradGradGradGradGradGradGradGradGradGradGradGrad
 Berny optimization.
 Using GEDIIS/GDIIS optimizer.
 FormGI is forming the generalized inverse of G from B-inverse, IUseBI=4.
 Internal  Forces:  Max     0.000022230 RMS     0.000008647
 Search for a local minimum.
 Step number   6 out of a maximum of  100
 All quantities printed in internal units (Hartrees-Bohrs-Radians)
 Mixed Optimization -- En-DIIS/RFO-DIIS
 Swapping is turned off.
 Update second derivatives using D2CorX and points    1    2    3    4    5
                                                      6
 DE= -3.92D-08 DEPred=-3.43D-08 R= 1.14D+00
 Trust test= 1.14D+00 RLast= 9.93D-04 DXMaxT set to 3.71D-01
 The second derivative matrix:
                          R1        R2        R3        R4        R5
           R1           0.32158
           R2           0.00287   0.17322
           R3           0.00472   0.00187   0.18553
           R4           0.00287   0.00045   0.00187   0.17322
           R5          -0.01037  -0.00067   0.00437  -0.00067   0.55143
           A1           0.00813  -0.00077  -0.00146  -0.00077   0.00054
           A2           0.05192  -0.00255  -0.00011  -0.00255  -0.00250
           A3           0.00813  -0.00077  -0.00146  -0.00077   0.00054
           A4          -0.03309   0.00107  -0.00067   0.00107  -0.00421
           A5          -0.00363   0.00194   0.00389   0.00194   0.00834
           A6          -0.03309   0.00107  -0.00067   0.00107  -0.00421
           A7           0.05549   0.00106  -0.00107   0.00106   0.02329
           D1           0.00194   0.00018  -0.00241   0.00018  -0.00983
           D2           0.00000   0.00000   0.00000   0.00000   0.00000
           D3          -0.00194  -0.00018   0.00241  -0.00018   0.00983
                          A1        A2        A3        A4        A5
           A1           0.15987
           A2          -0.00032   0.16179
           A3          -0.00013  -0.00032   0.15987
           A4           0.00097  -0.00495   0.00097   0.16093
           A5          -0.00122   0.00777  -0.00122   0.00118   0.15291
           A6           0.00097  -0.00495   0.00097   0.00093   0.00118
           A7          -0.00110   0.00872  -0.00110   0.00626  -0.01784
           D1           0.00033  -0.00371   0.00033  -0.00042   0.00396
           D2          -0.00000  -0.00000  -0.00000   0.00000  -0.00000
           D3          -0.00033   0.00371  -0.00033   0.00042  -0.00396
                          A6        A7        D1        D2        D3
           A6           0.16093
           A7           0.00626   0.07805
           D1          -0.00042   0.00193   0.03746
           D2           0.00000  -0.00000  -0.00000   0.03479
           D3           0.00042  -0.00193  -0.00266   0.00000   0.03746
 ITU=  0  0  1  1  1  0
     Eigenvalues ---    0.03479   0.05837   0.11391   0.11400   0.14050
     Eigenvalues ---    0.16000   0.16301   0.17277   0.17403   0.18670
     Eigenvalues ---    0.35904   0.55291
 En-DIIS/RFO-DIIS/Sim-DIIS IScMMF=       -3 using points:     6    5    4    3
 RFO step:  Lambda=-5.46004381D-09.
 DIIS inversion failure, remove point   4.
 DIIS inversion failure, remove point   3.
 RFO-DIIS uses    2 points instead of    4
 DidBck=F Rises=F RFO-DIIS coefs:    1.18176   -0.18176    0.00000    0.00000
 Iteration  1 RMS(Cart)=  0.00008501 RMS(Int)=  0.00000001
 Iteration  2 RMS(Cart)=  0.00000001 RMS(Int)=  0.00000000
 Variable       Old X    -DE/DX   Delta X   Delta X   Delta X     New X
                                 (Linear)    (Quad)   (Total)
    R1        3.25257   0.00002   0.00005   0.00003   0.00008   3.25265
    R2        2.79783  -0.00000   0.00000  -0.00000  -0.00000   2.79783
    R3        2.77938  -0.00000  -0.00001  -0.00001  -0.00002   2.77937
    R4        2.79783  -0.00000   0.00000  -0.00000  -0.00000   2.79783
    R5        1.81347   0.00000   0.00001   0.00000   0.00001   1.81349
    A1        1.95606   0.00000  -0.00000   0.00001   0.00001   1.95606
    A2        1.83487   0.00002  -0.00002   0.00010   0.00008   1.83495
    A3        1.95606   0.00000  -0.00000   0.00001   0.00001   1.95606
    A4        1.91740  -0.00001   0.00003  -0.00007  -0.00004   1.91736
    A5        1.88199   0.00000  -0.00003   0.00002  -0.00001   1.88197
    A6        1.91740  -0.00001   0.00003  -0.00007  -0.00004   1.91736
    A7        2.13284  -0.00001  -0.00016  -0.00004  -0.00020   2.13264
    D1        1.05941   0.00000  -0.00002   0.00002  -0.00000   1.05940
    D2        3.14159  -0.00000   0.00000  -0.00000   0.00000   3.14159
    D3       -1.05941  -0.00000   0.00002  -0.00002   0.00000  -1.05940
         Item               Value     Threshold  Converged?
 Maximum Force            0.000022     0.000015     NO 
 RMS     Force            0.000009     0.000010     YES
 Maximum Displacement     0.000171     0.000060     NO 
 RMS     Displacement     0.000085     0.000040     NO 
 Predicted change in Energy=-3.091587D-09
 GradGradGradGradGradGradGradGradGradGradGradGradGradGradGradGradGradGrad

                          Input orientation:                          
 ---------------------------------------------------------------------
 Center     Atomic      Atomic             Coordinates (Angstroms)
 Number     Number       Type             X           Y           Z
 ---------------------------------------------------------------------
      1         14           0        0.505495    0.020273   -0.000000
      2          8           0       -1.210550   -0.113211   -0.000000
      3          1           0        1.008148    0.732855    1.196489
      4          1           0        0.998457   -1.365431    0.000000
      5          1           0        1.008148    0.732855   -1.196489
      6          1           0       -1.783244    0.656827    0.000000
 ---------------------------------------------------------------------
                    Distance matrix (angstroms):
                    1          2          3          4          5
     1  Si   0.000000
     2  O    1.721229   0.000000
     3  H    1.480547   2.658954   0.000000
     4  H    1.470777   2.539244   2.415468   0.000000
     5  H    1.480547   2.658954   2.392978   2.415468   0.000000
     6  H    2.375612   0.959656   3.037966   3.439097   3.037966
                    6
     6  H    0.000000
 Symmetry turned off by external request.
 Stoichiometry    H4OSi
 Framework group  CS[SG(H2OSi),X(H2)]
 Deg. of freedom     8
 Full point group                 CS      NOp   2
 Rotational constants (GHZ):          78.5192700          12.8075718          12.5952373
 Standard basis: 6-311G(3d2f,3p2d) (5D, 7F)
    58 basis functions,    98 primitive gaussians,    58 cartesian basis functions
    13 alpha electrons       13 beta electrons
       nuclear repulsion energy        63.0212976815 Hartrees.
 NAtoms=    6 NActive=    6 NUniq=    6 SFac= 1.00D+00 NAtFMM=   60 NAOKFM=F Big=F
 Integral buffers will be    131072 words long.
 Raffenetti 2 integral format.
 Two-electron integral symmetry is turned off.
 One-electron integrals computed using PRISM.
 NBasis=    58 RedAO= T EigKep=  1.29D-02  NBF=    58
 NBsUse=    58 1.00D-06 EigRej= -1.00D+00 NBFU=    58
 Initial guess from the checkpoint file:  "H3SiOH_B3LYP_6-311g.chk"
 B after Tr=    -0.000067   -0.000043   -0.000000
         Rot=    1.000000    0.000000   -0.000000   -0.000002 Ang=  -0.00 deg.
 Keep R1 ints in memory in canonical form, NReq=22521086.
 Requested convergence on RMS density matrix=1.00D-08 within 128 cycles.
 Requested convergence on MAX density matrix=1.00D-06.
 Requested convergence on             energy=1.00D-06.
 No special actions if energy rises.
 SCF Done:  E(RB3LYP) =  -367.160967439     A.U. after    5 cycles
            NFock=  5  Conv=0.81D-08     -V/T= 2.0020
 Calling FoFJK, ICntrl=      2127 FMM=F ISym2X=0 I1Cent= 0 IOpClX= 0 NMat=1 NMatS=1 NMatT=0.
 -------------------------------------------------------------------
 Center     Atomic                   Forces (Hartrees/Bohr)
 Number     Number              X              Y              Z
 -------------------------------------------------------------------
      1       14           0.000006551    0.000007535    0.000000000
      2        8          -0.000007567   -0.000008667    0.000000000
      3        1          -0.000004808    0.000003708    0.000001524
      4        1           0.000013998    0.000007073    0.000000000
      5        1          -0.000004808    0.000003708   -0.000001524
      6        1          -0.000003365   -0.000013358   -0.000000000
 -------------------------------------------------------------------
 Cartesian Forces:  Max     0.000013998 RMS     0.000006438

 GradGradGradGradGradGradGradGradGradGradGradGradGradGradGradGradGradGrad
 Berny optimization.
 Using GEDIIS/GDIIS optimizer.
 FormGI is forming the generalized inverse of G from B-inverse, IUseBI=4.
 Internal  Forces:  Max     0.000008553 RMS     0.000003283
 Search for a local minimum.
 Step number   7 out of a maximum of  100
 All quantities printed in internal units (Hartrees-Bohrs-Radians)
 Mixed Optimization -- En-DIIS/RFO-DIIS
 Swapping is turned off.
 Update second derivatives using D2CorX and points    1    2    3    4    5
                                                      6    7
 DE= -3.87D-09 DEPred=-3.09D-09 R= 1.25D+00
 Trust test= 1.25D+00 RLast= 2.38D-04 DXMaxT set to 3.71D-01
 The second derivative matrix:
                          R1        R2        R3        R4        R5
           R1           0.27450
           R2           0.00453   0.17341
           R3           0.00549   0.00253   0.18886
           R4           0.00453   0.00064   0.00253   0.17341
           R5          -0.00769  -0.00100   0.00375  -0.00100   0.55273
           A1           0.00695  -0.00090  -0.00278  -0.00090   0.00149
           A2           0.02429  -0.00162  -0.00084  -0.00162  -0.00086
           A3           0.00695  -0.00090  -0.00278  -0.00090   0.00149
           A4          -0.01215   0.00031  -0.00180   0.00031  -0.00452
           A5          -0.01399   0.00274   0.00919   0.00274   0.00537
           A6          -0.01215   0.00031  -0.00180   0.00031  -0.00452
           A7           0.05952   0.00093   0.00182   0.00093   0.02412
           D1           0.00152   0.00046  -0.00207   0.00046  -0.01142
           D2          -0.00000   0.00000   0.00000   0.00000  -0.00000
           D3          -0.00152  -0.00046   0.00207  -0.00046   0.01142
                          A1        A2        A3        A4        A5
           A1           0.16071
           A2           0.00044   0.14615
           A3           0.00071   0.00044   0.16071
           A4           0.00163   0.00824   0.00163   0.15021
           A5          -0.00476  -0.00330  -0.00476   0.00722   0.15913
           A6           0.00163   0.00824   0.00163  -0.00979   0.00722
           A7          -0.00360   0.00929  -0.00360   0.00021  -0.00243
           D1          -0.00011  -0.00526  -0.00011  -0.00062   0.00673
           D2          -0.00000  -0.00000  -0.00000   0.00000  -0.00000
           D3           0.00011   0.00526   0.00011   0.00062  -0.00673
                          A6        A7        D1        D2        D3
           A6           0.15021
           A7           0.00021   0.07714
           D1          -0.00062   0.00095   0.03803
           D2           0.00000   0.00000  -0.00000   0.03479
           D3           0.00062  -0.00095  -0.00323   0.00000   0.03803
 ITU=  0  0  0  1  1  1  0
     Eigenvalues ---    0.03479   0.05842   0.10740   0.11399   0.13225
     Eigenvalues ---    0.16000   0.16261   0.17277   0.17379   0.19281
     Eigenvalues ---    0.29911   0.55414
 En-DIIS/RFO-DIIS/Sim-DIIS IScMMF=       -3 using points:     7    6    5    4    3
 RFO step:  Lambda=-9.15500007D-10.
 DIIS inversion failure, remove point   5.
 DIIS inversion failure, remove point   4.
 DIIS inversion failure, remove point   3.
 DIIS inversion failure, remove point   2.
 Use linear search instead of GDIIS.
 RFO step:  Lambda= 0.00000000D+00 EMin= 3.47947575D-02
 Quartic linear search produced a step of  0.33508.
 Iteration  1 RMS(Cart)=  0.00003555 RMS(Int)=  0.00000000
 Iteration  2 RMS(Cart)=  0.00000000 RMS(Int)=  0.00000000
 Variable       Old X    -DE/DX   Delta X   Delta X   Delta X     New X
                                 (Linear)    (Quad)   (Total)
    R1        3.25265   0.00001   0.00003   0.00001   0.00004   3.25269
    R2        2.79783  -0.00000  -0.00000  -0.00000  -0.00000   2.79783
    R3        2.77937   0.00000  -0.00001   0.00001   0.00000   2.77937
    R4        2.79783  -0.00000  -0.00000  -0.00000  -0.00000   2.79783
    R5        1.81349  -0.00000   0.00000  -0.00000   0.00000   1.81349
    A1        1.95606  -0.00000   0.00000  -0.00001  -0.00001   1.95606
    A2        1.83495   0.00001   0.00003   0.00001   0.00004   1.83499
    A3        1.95606  -0.00000   0.00000  -0.00001  -0.00001   1.95606
    A4        1.91736  -0.00000  -0.00001  -0.00002  -0.00003   1.91732
    A5        1.88197   0.00000  -0.00000   0.00004   0.00004   1.88201
    A6        1.91736  -0.00000  -0.00001  -0.00002  -0.00003   1.91732
    A7        2.13264  -0.00000  -0.00007   0.00002  -0.00004   2.13259
    D1        1.05940   0.00000  -0.00000   0.00002   0.00002   1.05942
    D2        3.14159  -0.00000   0.00000   0.00000   0.00000   3.14159
    D3       -1.05940  -0.00000   0.00000  -0.00002  -0.00002  -1.05942
         Item               Value     Threshold  Converged?
 Maximum Force            0.000009     0.000015     YES
 RMS     Force            0.000003     0.000010     YES
 Maximum Displacement     0.000085     0.000060     NO 
 RMS     Displacement     0.000036     0.000040     YES
 Predicted change in Energy=-5.144707D-10
 GradGradGradGradGradGradGradGradGradGradGradGradGradGradGradGradGradGrad

                          Input orientation:                          
 ---------------------------------------------------------------------
 Center     Atomic      Atomic             Coordinates (Angstroms)
 Number     Number       Type             X           Y           Z
 ---------------------------------------------------------------------
      1         14           0        0.505490    0.020274   -0.000000
      2          8           0       -1.210574   -0.113212   -0.000000
      3          1           0        1.008137    0.732833    1.196503
      4          1           0        0.998502   -1.365412    0.000000
      5          1           0        1.008137    0.732833   -1.196503
      6          1           0       -1.783236    0.656852    0.000000
 ---------------------------------------------------------------------
                    Distance matrix (angstroms):
                    1          2          3          4          5
     1  Si   0.000000
     2  O    1.721248   0.000000
     3  H    1.480546   2.658964   0.000000
     4  H    1.470778   2.539296   2.415440   0.000000
     5  H    1.480546   2.658964   2.393006   2.415440   0.000000
     6  H    2.375605   0.959657   3.037953   3.439131   3.037953
                    6
     6  H    0.000000
 Symmetry turned off by external request.
 Stoichiometry    H4OSi
 Framework group  CS[SG(H2OSi),X(H2)]
 Deg. of freedom     8
 Full point group                 CS      NOp   2
 Rotational constants (GHZ):          78.5192865          12.8073150          12.5950326
 Standard basis: 6-311G(3d2f,3p2d) (5D, 7F)
    58 basis functions,    98 primitive gaussians,    58 cartesian basis functions
    13 alpha electrons       13 beta electrons
       nuclear repulsion energy        63.0208801655 Hartrees.
 NAtoms=    6 NActive=    6 NUniq=    6 SFac= 1.00D+00 NAtFMM=   60 NAOKFM=F Big=F
 Integral buffers will be    131072 words long.
 Raffenetti 2 integral format.
 Two-electron integral symmetry is turned off.
 One-electron integrals computed using PRISM.
 NBasis=    58 RedAO= T EigKep=  1.29D-02  NBF=    58
 NBsUse=    58 1.00D-06 EigRej= -1.00D+00 NBFU=    58
 Initial guess from the checkpoint file:  "H3SiOH_B3LYP_6-311g.chk"
 B after Tr=    -0.000018    0.000000   -0.000000
         Rot=    1.000000   -0.000000    0.000000    0.000000 Ang=   0.00 deg.
 Keep R1 ints in memory in canonical form, NReq=22521086.
 Requested convergence on RMS density matrix=1.00D-08 within 128 cycles.
 Requested convergence on MAX density matrix=1.00D-06.
 Requested convergence on             energy=1.00D-06.
 No special actions if energy rises.
 SCF Done:  E(RB3LYP) =  -367.160967440     A.U. after    5 cycles
            NFock=  5  Conv=0.20D-08     -V/T= 2.0020
 Calling FoFJK, ICntrl=      2127 FMM=F ISym2X=0 I1Cent= 0 IOpClX= 0 NMat=1 NMatS=1 NMatT=0.
 -------------------------------------------------------------------
 Center     Atomic                   Forces (Hartrees/Bohr)
 Number     Number              X              Y              Z
 -------------------------------------------------------------------
      1       14           0.000001708    0.000005322   -0.000000000
      2        8           0.000001084   -0.000008872    0.000000000
      3        1          -0.000004979    0.000005598    0.000000780
      4        1           0.000011089    0.000005963   -0.000000000
      5        1          -0.000004979    0.000005598   -0.000000780
      6        1          -0.000003924   -0.000013608   -0.000000000
 -------------------------------------------------------------------
 Cartesian Forces:  Max     0.000013608 RMS     0.000005694

 GradGradGradGradGradGradGradGradGradGradGradGradGradGradGradGradGradGrad
 Berny optimization.
 Using GEDIIS/GDIIS optimizer.
 FormGI is forming the generalized inverse of G from B-inverse, IUseBI=4.
 Internal  Forces:  Max     0.000002268 RMS     0.000000800
 Search for a local minimum.
 Step number   8 out of a maximum of  100
 All quantities printed in internal units (Hartrees-Bohrs-Radians)
 Mixed Optimization -- En-DIIS/RFO-DIIS
 Swapping is turned off.
 Update second derivatives using D2CorX and points    1    2    3    4    5
                                                      6    7    8
 DE= -6.03D-10 DEPred=-5.14D-10 R= 1.17D+00
 Trust test= 1.17D+00 RLast= 9.28D-05 DXMaxT set to 3.71D-01
 The second derivative matrix:
                          R1        R2        R3        R4        R5
           R1           0.28302
           R2           0.00355   0.17365
           R3          -0.00340   0.00334   0.19063
           R4           0.00355   0.00088   0.00334   0.17365
           R5          -0.00634  -0.00091   0.00545  -0.00091   0.55341
           A1           0.01297  -0.00125  -0.00308  -0.00125   0.00079
           A2           0.03469  -0.00213  -0.00560  -0.00213  -0.00157
           A3           0.01297  -0.00125  -0.00308  -0.00125   0.00079
           A4          -0.00823   0.00026   0.00140   0.00026  -0.00590
           A5          -0.04294   0.00399   0.00826   0.00399   0.00981
           A6          -0.00823   0.00026   0.00140   0.00026  -0.00590
           A7           0.05749   0.00039   0.00005   0.00039   0.02545
           D1           0.00256   0.00054  -0.00317   0.00054  -0.01265
           D2          -0.00000   0.00000   0.00000   0.00000   0.00000
           D3          -0.00256  -0.00054   0.00317  -0.00054   0.01265
                          A1        A2        A3        A4        A5
           A1           0.16067
           A2           0.00373   0.15471
           A3           0.00067   0.00373   0.16067
           A4          -0.00078   0.00843  -0.00078   0.14431
           A5          -0.00329  -0.01824  -0.00329   0.02272   0.14161
           A6          -0.00078   0.00843  -0.00078  -0.01569   0.02272
           A7          -0.00248   0.00909  -0.00248   0.00106  -0.00597
           D1           0.00048  -0.00364   0.00048  -0.00111   0.00501
           D2          -0.00000  -0.00000  -0.00000   0.00000  -0.00000
           D3          -0.00048   0.00364  -0.00048   0.00111  -0.00501
                          A6        A7        D1        D2        D3
           A6           0.14431
           A7           0.00106   0.07591
           D1          -0.00111  -0.00086   0.03889
           D2           0.00000  -0.00000  -0.00000   0.03479
           D3           0.00111   0.00086  -0.00409   0.00000   0.03889
 ITU=  0  0  0  0  1  1  1  0
     Eigenvalues ---    0.03479   0.05849   0.08491   0.11399   0.13598
     Eigenvalues ---    0.15482   0.16000   0.17277   0.17418   0.19416
     Eigenvalues ---    0.31854   0.55496
 En-DIIS/RFO-DIIS/Sim-DIIS IScMMF=       -3 using points:     8    7    6    5    4    3
 RFO step:  Lambda=-7.98110749D-11.
 DIIS inversion failure, remove point   6.
 DIIS inversion failure, remove point   5.
 DIIS inversion failure, remove point   4.
 DIIS inversion failure, remove point   3.
 DIIS inversion failure, remove point   2.
 Use linear search instead of GDIIS.
 RFO step:  Lambda= 0.00000000D+00 EMin= 3.47947575D-02
 Quartic linear search produced a step of  0.20825.
 Iteration  1 RMS(Cart)=  0.00001053 RMS(Int)=  0.00000000
 Iteration  2 RMS(Cart)=  0.00000000 RMS(Int)=  0.00000000
 Variable       Old X    -DE/DX   Delta X   Delta X   Delta X     New X
                                 (Linear)    (Quad)   (Total)
    R1        3.25269   0.00000   0.00001  -0.00000   0.00000   3.25269
    R2        2.79783  -0.00000  -0.00000  -0.00000  -0.00000   2.79782
    R3        2.77937   0.00000   0.00000   0.00000   0.00000   2.77937
    R4        2.79783  -0.00000  -0.00000  -0.00000  -0.00000   2.79782
    R5        1.81349  -0.00000   0.00000  -0.00000  -0.00000   1.81349
    A1        1.95606  -0.00000  -0.00000  -0.00000  -0.00000   1.95606
    A2        1.83499   0.00000   0.00001  -0.00000   0.00000   1.83499
    A3        1.95606  -0.00000  -0.00000  -0.00000  -0.00000   1.95606
    A4        1.91732  -0.00000  -0.00001  -0.00000  -0.00001   1.91732
    A5        1.88201   0.00000   0.00001   0.00001   0.00002   1.88203
    A6        1.91732  -0.00000  -0.00001  -0.00000  -0.00001   1.91732
    A7        2.13259   0.00000  -0.00001   0.00001   0.00000   2.13260
    D1        1.05942   0.00000   0.00000   0.00001   0.00001   1.05943
    D2        3.14159   0.00000   0.00000   0.00000   0.00000   3.14159
    D3       -1.05942  -0.00000  -0.00000  -0.00001  -0.00001  -1.05943
         Item               Value     Threshold  Converged?
 Maximum Force            0.000002     0.000015     YES
 RMS     Force            0.000001     0.000010     YES
 Maximum Displacement     0.000017     0.000060     YES
 RMS     Displacement     0.000011     0.000040     YES
 Predicted change in Energy=-4.620135D-11
 Optimization completed.
    -- Stationary point found.
                           ----------------------------
                           !   Optimized Parameters   !
                           ! (Angstroms and Degrees)  !
 --------------------------                            --------------------------
 ! Name  Definition              Value          Derivative Info.                !
 --------------------------------------------------------------------------------
 ! R1    R(1,2)                  1.7212         -DE/DX =    0.0                 !
 ! R2    R(1,3)                  1.4805         -DE/DX =    0.0                 !
 ! R3    R(1,4)                  1.4708         -DE/DX =    0.0                 !
 ! R4    R(1,5)                  1.4805         -DE/DX =    0.0                 !
 ! R5    R(2,6)                  0.9597         -DE/DX =    0.0                 !
 ! A1    A(2,1,3)              112.074          -DE/DX =    0.0                 !
 ! A2    A(2,1,4)              105.1372         -DE/DX =    0.0                 !
 ! A3    A(2,1,5)              112.074          -DE/DX =    0.0                 !
 ! A4    A(3,1,4)              109.8546         -DE/DX =    0.0                 !
 ! A5    A(3,1,5)              107.8312         -DE/DX =    0.0                 !
 ! A6    A(4,1,5)              109.8546         -DE/DX =    0.0                 !
 ! A7    A(1,2,6)              122.1887         -DE/DX =    0.0                 !
 ! D1    D(3,1,2,6)             60.7005         -DE/DX =    0.0                 !
 ! D2    D(4,1,2,6)            180.0            -DE/DX =    0.0                 !
 ! D3    D(5,1,2,6)            -60.7005         -DE/DX =    0.0                 !
 --------------------------------------------------------------------------------
 GradGradGradGradGradGradGradGradGradGradGradGradGradGradGradGradGradGrad

                          Input orientation:                          
 ---------------------------------------------------------------------
 Center     Atomic      Atomic             Coordinates (Angstroms)
 Number     Number       Type             X           Y           Z
 ---------------------------------------------------------------------
      1         14           0        0.505490    0.020274   -0.000000
      2          8           0       -1.210574   -0.113212   -0.000000
      3          1           0        1.008137    0.732833    1.196503
      4          1           0        0.998502   -1.365412    0.000000
      5          1           0        1.008137    0.732833   -1.196503
      6          1           0       -1.783236    0.656852    0.000000
 ---------------------------------------------------------------------
                    Distance matrix (angstroms):
                    1          2          3          4          5
     1  Si   0.000000
     2  O    1.721248   0.000000
     3  H    1.480546   2.658964   0.000000
     4  H    1.470778   2.539296   2.415440   0.000000
     5  H    1.480546   2.658964   2.393006   2.415440   0.000000
     6  H    2.375605   0.959657   3.037953   3.439131   3.037953
                    6
     6  H    0.000000
 Symmetry turned off by external request.
 Stoichiometry    H4OSi
 Framework group  CS[SG(H2OSi),X(H2)]
 Deg. of freedom     8
 Full point group                 CS      NOp   2
 Rotational constants (GHZ):          78.5192865          12.8073150          12.5950326

 **********************************************************************

            Population analysis using the SCF density.

 **********************************************************************

 Alpha  occ. eigenvalues --  -66.13700 -19.10978  -5.31086  -3.67083  -3.66772
 Alpha  occ. eigenvalues --   -3.66772  -0.99279  -0.57622  -0.47346  -0.37975
 Alpha  occ. eigenvalues --   -0.37718  -0.32325  -0.29945
 Alpha virt. eigenvalues --   -0.00686   0.05453   0.06509   0.07556   0.07818
 Alpha virt. eigenvalues --    0.14069   0.14269   0.22756   0.28201   0.35061
 Alpha virt. eigenvalues --    0.36711   0.44543   0.44899   0.80224   0.81041
 Alpha virt. eigenvalues --    0.90684   0.95183   0.96564   0.97503   1.19636
 Alpha virt. eigenvalues --    1.24496   1.26312   1.27166   1.36581   1.46288
 Alpha virt. eigenvalues --    1.48238   1.52667   1.65904   1.68012   1.68054
 Alpha virt. eigenvalues --    1.77528   2.04675   2.35325   2.36000   2.41518
 Alpha virt. eigenvalues --    2.49460   4.80390   4.82298   5.14174   5.51602
 Alpha virt. eigenvalues --   11.26248  11.28352  11.29440  49.80428 140.92712
     Molecular Orbital Coefficients:
                           1         2         3         4         5
                           O         O         O         O         O
     Eigenvalues --   -66.13700 -19.10978  -5.31086  -3.67083  -3.66772
   1 1   Si 1S          0.41758   0.00000  -0.11702  -0.00065   0.00000
   2        2S          0.64678   0.00000  -0.30379  -0.00173   0.00000
   3        3S          0.01404   0.00002   0.53568   0.00343  -0.00000
   4        4S         -0.00491  -0.00012   0.57232   0.00275  -0.00000
   5        5S          0.00231  -0.00006   0.05933  -0.00035  -0.00000
   6        6S         -0.00165   0.00288  -0.03480   0.00216   0.00000
   7        7PX        -0.00005   0.00001  -0.00183   0.40357  -0.00000
   8        7PY         0.00000  -0.00000   0.00007   0.00648   0.00000
   9        7PZ         0.00000  -0.00000  -0.00000   0.00000   0.40390
  10        8PX        -0.00000  -0.00001  -0.00394   0.68830  -0.00000
  11        8PY         0.00000   0.00001   0.00015   0.01107   0.00000
  12        8PZ        -0.00000   0.00000  -0.00000   0.00000   0.68852
  13        9PX         0.00004  -0.00008  -0.00021   0.06159  -0.00000
  14        9PY        -0.00000  -0.00006   0.00000   0.00096   0.00000
  15        9PZ         0.00000  -0.00000  -0.00000   0.00000   0.06066
  16       10PX        -0.00008  -0.00098  -0.00088  -0.01109   0.00000
  17       10PY        -0.00000   0.00002   0.00015  -0.00023  -0.00000
  18       10PZ         0.00000   0.00000   0.00000  -0.00000  -0.00954
  19       11PX        -0.00012  -0.00004  -0.00210   0.00365  -0.00000
  20       11PY        -0.00002  -0.00047  -0.00061  -0.00027   0.00000
  21       11PZ         0.00000   0.00000  -0.00000  -0.00000   0.00280
  22 2   O  1S          0.00000   0.55131  -0.00007   0.00035   0.00000
  23        2S         -0.00000   0.46986  -0.00007   0.00049   0.00000
  24        2PX         0.00002   0.00054   0.00018  -0.00062  -0.00000
  25        2PY         0.00000   0.00146   0.00001  -0.00009   0.00000
  26        2PZ        -0.00000   0.00000  -0.00000   0.00000   0.00007
  27        3S          0.00005   0.01259   0.00014  -0.00104  -0.00000
  28        3PX        -0.00003  -0.00019  -0.00020  -0.00065  -0.00000
  29        3PY        -0.00001   0.00003   0.00002   0.00002   0.00000
  30        3PZ         0.00000   0.00000   0.00000  -0.00000   0.00013
  31        4S         -0.00014  -0.00561  -0.00030  -0.00236   0.00000
  32        4PX        -0.00018  -0.00106  -0.00179  -0.00114  -0.00000
  33        4PY        -0.00006  -0.00015  -0.00073  -0.00036   0.00000
  34        4PZ        -0.00000  -0.00000  -0.00000   0.00000   0.00038
  35 3   H  1S          0.00004   0.00008   0.00036   0.00018   0.00047
  36        2S         -0.00026  -0.00031  -0.00310   0.00058   0.00101
  37        3S          0.00043  -0.00033   0.00802  -0.00069  -0.00049
  38        4PX         0.00005   0.00016   0.00038   0.00021   0.00001
  39        4PY         0.00007   0.00005   0.00044   0.00001   0.00003
  40        4PZ         0.00011   0.00004   0.00074  -0.00004   0.00021
  41 4   H  1S          0.00004   0.00005   0.00032   0.00017  -0.00000
  42        2S         -0.00026  -0.00020  -0.00289   0.00054  -0.00000
  43        3S          0.00040  -0.00088   0.00737  -0.00104   0.00000
  44        4PX         0.00005   0.00014   0.00037   0.00021   0.00000
  45        4PY        -0.00013  -0.00008  -0.00081   0.00001   0.00000
  46        4PZ         0.00000  -0.00000   0.00000   0.00000   0.00016
  47 5   H  1S          0.00004   0.00008   0.00036   0.00018  -0.00047
  48        2S         -0.00026  -0.00031  -0.00310   0.00058  -0.00101
  49        3S          0.00043  -0.00033   0.00802  -0.00069   0.00049
  50        4PX         0.00005   0.00016   0.00038   0.00021  -0.00001
  51        4PY         0.00007   0.00005   0.00044   0.00001  -0.00003
  52        4PZ        -0.00011  -0.00004  -0.00074   0.00004   0.00021
  53 6   H  1S         -0.00001   0.00001   0.00002   0.00010  -0.00000
  54        2S          0.00005  -0.00030   0.00021  -0.00024  -0.00000
  55        3S          0.00005   0.00063   0.00148   0.00098  -0.00000
  56        4PX         0.00008  -0.00035   0.00076  -0.00010   0.00000
  57        4PY         0.00003   0.00076   0.00032   0.00002   0.00000
  58        4PZ         0.00000   0.00000   0.00000  -0.00000  -0.00008
                           6         7         8         9        10
                           O         O         O         O         O
     Eigenvalues --    -3.66772  -0.99279  -0.57622  -0.47346  -0.37975
   1 1   Si 1S          0.00004   0.00599   0.02399  -0.01160  -0.00000
   2        2S          0.00011   0.01630   0.06582  -0.03200  -0.00000
   3        3S         -0.00021  -0.03571  -0.14979   0.07446   0.00000
   4        4S         -0.00019  -0.05894  -0.24397   0.11485   0.00000
   5        5S          0.00008   0.11079   0.47202  -0.20393  -0.00000
   6        6S          0.00036  -0.05426   0.15335  -0.20950   0.00000
   7        7PX        -0.00649   0.02052   0.00708   0.04615  -0.00000
   8        7PY         0.40385   0.00041   0.00494   0.01856   0.00000
   9        7PZ        -0.00000  -0.00000  -0.00000   0.00000  -0.06968
  10        8PX        -0.01104   0.03831   0.01449   0.08298  -0.00000
  11        8PY         0.68838   0.00091   0.00899   0.03291   0.00000
  12        8PZ        -0.00000   0.00000   0.00000   0.00000  -0.12179
  13        9PX        -0.00102  -0.04918  -0.02704  -0.11836   0.00000
  14        9PY         0.06080  -0.00261  -0.01165  -0.04082  -0.00000
  15        9PZ        -0.00000  -0.00000  -0.00000  -0.00000   0.16104
  16       10PX         0.00005   0.00796   0.00580  -0.08061   0.00000
  17       10PY        -0.00970   0.00786  -0.01435  -0.06852  -0.00000
  18       10PZ         0.00000   0.00000   0.00000  -0.00000   0.23460
  19       11PX        -0.00017  -0.00670   0.00156  -0.03895   0.00000
  20       11PY         0.00298  -0.00338   0.00251  -0.03305  -0.00000
  21       11PZ        -0.00000   0.00000   0.00000   0.00000   0.08918
  22 2   O  1S          0.00002  -0.11685   0.00599  -0.02698  -0.00000
  23        2S          0.00003  -0.18677   0.00961  -0.04362  -0.00000
  24        2PX        -0.00005   0.00682   0.14042   0.13262  -0.00000
  25        2PY         0.00008   0.04731  -0.07013  -0.12598  -0.00000
  26        2PZ        -0.00000   0.00000  -0.00000  -0.00000   0.13646
  27        3S         -0.00014   0.53263  -0.03530   0.11938   0.00000
  28        3PX         0.00002   0.02234   0.20467   0.19351  -0.00000
  29        3PY         0.00008   0.07350  -0.09504  -0.17000  -0.00000
  30        3PZ        -0.00000   0.00000  -0.00000  -0.00000   0.19432
  31        4S          0.00023   0.43294   0.03536   0.26410   0.00000
  32        4PX        -0.00052   0.05697   0.14011   0.17519  -0.00000
  33        4PY         0.00067   0.03502  -0.04659  -0.12473  -0.00000
  34        4PZ        -0.00000   0.00000  -0.00000  -0.00000   0.19542
  35 3   H  1S          0.00029   0.00395   0.05728  -0.07643   0.11668
  36        2S          0.00056  -0.00160   0.08932  -0.13098   0.22118
  37        3S         -0.00038   0.01715   0.02667  -0.02008   0.10182
  38        4PX         0.00003  -0.00079  -0.00469   0.00342  -0.01049
  39        4PY         0.00020   0.00019  -0.00566   0.00799  -0.01247
  40        4PZ         0.00004   0.00094  -0.01012   0.01332  -0.01802
  41 4   H  1S         -0.00057   0.00384   0.06457  -0.04141   0.00000
  42        2S         -0.00128   0.00317   0.09232  -0.08607   0.00000
  43        3S          0.00071   0.01384   0.03413  -0.01861  -0.00000
  44        4PX        -0.00001  -0.00110  -0.00492   0.00004  -0.00000
  45        4PY         0.00023  -0.00025   0.01091  -0.01443   0.00000
  46        4PZ        -0.00000  -0.00000   0.00000  -0.00000   0.00338
  47 5   H  1S          0.00029   0.00395   0.05728  -0.07643  -0.11668
  48        2S          0.00056  -0.00160   0.08932  -0.13098  -0.22118
  49        3S         -0.00038   0.01715   0.02667  -0.02008  -0.10182
  50        4PX         0.00003  -0.00079  -0.00469   0.00342   0.01049
  51        4PY         0.00020   0.00019  -0.00566   0.00799   0.01247
  52        4PZ        -0.00004  -0.00094   0.01012  -0.01332  -0.01802
  53 6   H  1S         -0.00002   0.10520  -0.11217  -0.12253   0.00000
  54        2S         -0.00048   0.08817  -0.15857  -0.18391   0.00000
  55        3S         -0.00026   0.01165  -0.03754  -0.05203   0.00000
  56        4PX         0.00007   0.01587  -0.01806  -0.02366  -0.00000
  57        4PY         0.00010  -0.02528   0.02315   0.01647  -0.00000
  58        4PZ         0.00000  -0.00000   0.00000   0.00000   0.01372
                          11        12        13        14        15
                           O         O         O         V         V
     Eigenvalues --    -0.37718  -0.32325  -0.29945  -0.00686   0.05453
   1 1   Si 1S          0.00015   0.00207   0.00000  -0.00463   0.02158
   2        2S          0.00044   0.00570   0.00000  -0.01263   0.05973
   3        3S         -0.00126  -0.01326  -0.00000   0.02823  -0.14155
   4        4S         -0.00035  -0.02179  -0.00000   0.05717  -0.23749
   5        5S         -0.00265   0.04942   0.00000  -0.13789   0.42610
   6        6S          0.03469  -0.00621  -0.00000   0.17171   2.26688
   7        7PX        -0.03083   0.02566  -0.00000  -0.04667  -0.01792
   8        7PY         0.06265   0.03673  -0.00000   0.00304  -0.00278
   9        7PZ         0.00000   0.00000   0.02523  -0.00000  -0.00000
  10        8PX        -0.05475   0.04530  -0.00000  -0.08078  -0.02752
  11        8PY         0.10925   0.06383  -0.00000   0.00595  -0.00434
  12        8PZ         0.00000   0.00000   0.04354  -0.00000  -0.00000
  13        9PX         0.07658  -0.06291  -0.00000   0.09895   0.01522
  14        9PY        -0.14398  -0.09401   0.00000  -0.01203   0.00370
  15        9PZ        -0.00000  -0.00000  -0.06827   0.00000   0.00000
  16       10PX         0.07307  -0.06671   0.00000   0.34678   0.24000
  17       10PY        -0.21188  -0.08022   0.00000   0.00036   0.03439
  18       10PZ        -0.00000  -0.00000  -0.03229   0.00000   0.00000
  19       11PX         0.02850  -0.00010   0.00000   0.88555   0.20893
  20       11PY        -0.09659   0.04348  -0.00000  -0.28969  -0.13305
  21       11PZ        -0.00000  -0.00000   0.07484   0.00000   0.00000
  22 2   O  1S         -0.01264   0.02739   0.00000  -0.03715   0.01080
  23        2S         -0.02069   0.04470   0.00000  -0.05941   0.01747
  24        2PX        -0.11526   0.11382   0.00000   0.05179  -0.05815
  25        2PY        -0.09964   0.19675  -0.00000   0.06718  -0.01100
  26        2PZ        -0.00000   0.00000   0.26104  -0.00000  -0.00000
  27        3S          0.07108  -0.14070  -0.00000   0.14691  -0.04666
  28        3PX        -0.16243   0.15947   0.00000   0.07198  -0.07596
  29        3PY        -0.14507   0.27294  -0.00000   0.10969  -0.02192
  30        3PZ        -0.00000   0.00000   0.36340  -0.00000  -0.00000
  31        4S          0.00991  -0.14948   0.00000   0.74624  -0.20452
  32        4PX        -0.16326   0.17781   0.00000   0.16685  -0.14635
  33        4PY        -0.16703   0.31352  -0.00000   0.16358  -0.01619
  34        4PZ        -0.00000   0.00000   0.41980  -0.00000  -0.00000
  35 3   H  1S         -0.03898  -0.06793  -0.08294   0.00842  -0.05215
  36        2S         -0.07556  -0.14743  -0.20792  -0.00781  -0.00250
  37        3S         -0.02969  -0.11876  -0.17597  -0.12309  -1.12654
  38        4PX         0.00584   0.00284   0.00677   0.02322  -0.00263
  39        4PY         0.00094   0.00505   0.01491  -0.00333  -0.00750
  40        4PZ         0.00675   0.01771   0.02114   0.00079  -0.00896
  41 4   H  1S          0.14801   0.08943  -0.00000  -0.01343  -0.05896
  42        2S          0.28795   0.21090  -0.00000  -0.03856  -0.02904
  43        3S          0.10299   0.16026  -0.00000  -0.47732  -1.21851
  44        4PX        -0.00977  -0.00849  -0.00000   0.02302  -0.00130
  45        4PY         0.03003   0.02571  -0.00000  -0.00546   0.00830
  46        4PZ         0.00000  -0.00000  -0.00402   0.00000   0.00000
  47 5   H  1S         -0.03898  -0.06793   0.08294   0.00842  -0.05215
  48        2S         -0.07556  -0.14743   0.20792  -0.00781  -0.00250
  49        3S         -0.02969  -0.11876   0.17597  -0.12309  -1.12654
  50        4PX         0.00584   0.00284  -0.00677   0.02322  -0.00263
  51        4PY         0.00094   0.00505  -0.01491  -0.00333  -0.00750
  52        4PZ        -0.00675  -0.01771   0.02114  -0.00079   0.00896
  53 6   H  1S          0.00870   0.05063  -0.00000  -0.03270   0.01269
  54        2S          0.04577   0.04819   0.00000  -0.12920   0.04933
  55        3S          0.02231   0.02271   0.00000  -0.21593  -0.07197
  56        4PX        -0.00384   0.01699   0.00000   0.00035  -0.00685
  57        4PY        -0.02066   0.01595  -0.00000  -0.00062  -0.00979
  58        4PZ        -0.00000   0.00000   0.02685  -0.00000   0.00000
                          16        17        18        19        20
                           V         V         V         V         V
     Eigenvalues --     0.06509   0.07556   0.07818   0.14069   0.14269
   1 1   Si 1S         -0.00044  -0.00000  -0.00027   0.00000  -0.00054
   2        2S         -0.00108  -0.00000  -0.00068   0.00000  -0.00148
   3        3S          0.00132   0.00000   0.00102  -0.00000   0.00347
   4        4S          0.01018   0.00000   0.00601   0.00000   0.00647
   5        5S         -0.07121  -0.00000  -0.02858   0.00000  -0.03789
   6        6S          0.26391  -0.00000   0.00871  -0.00000  -0.01516
   7        7PX        -0.01227   0.00000  -0.01274  -0.00000   0.00647
   8        7PY        -0.03875  -0.00000   0.02119   0.00000  -0.07343
   9        7PZ         0.00000  -0.04317  -0.00000  -0.07541  -0.00000
  10        8PX        -0.02086   0.00000  -0.02146  -0.00000   0.01007
  11        8PY        -0.06635  -0.00000   0.03439   0.00000  -0.11450
  12        8PZ         0.00000  -0.07413  -0.00000  -0.11740  -0.00000
  13        9PX         0.02346  -0.00000   0.01578   0.00000  -0.00831
  14        9PY         0.06870   0.00000  -0.02637  -0.00000   0.06916
  15        9PZ        -0.00000   0.08452   0.00000   0.07096   0.00000
  16       10PX         0.11345  -0.00000   0.21400   0.00000  -0.08281
  17       10PY         0.40309   0.00000  -0.26549  -0.00000   1.10385
  18       10PZ        -0.00000   0.41413   0.00000   1.12484   0.00000
  19       11PX         0.20443  -0.00000   0.85590  -0.00000   0.30376
  20       11PY         1.73923   0.00000  -0.19196   0.00000  -1.04479
  21       11PZ        -0.00000   1.67419   0.00000  -0.94495  -0.00000
  22 2   O  1S         -0.01290  -0.00000   0.01893  -0.00000   0.00620
  23        2S         -0.02068  -0.00000   0.03100  -0.00000   0.01017
  24        2PX        -0.00208  -0.00000   0.10827  -0.00000   0.01256
  25        2PY        -0.06991   0.00000  -0.07540   0.00000  -0.01497
  26        2PZ         0.00000  -0.10007  -0.00000  -0.00250  -0.00000
  27        3S          0.05289   0.00000  -0.09529   0.00000  -0.03432
  28        3PX        -0.00483  -0.00000   0.12616  -0.00000   0.01041
  29        3PY        -0.07471   0.00000  -0.09817   0.00000  -0.02246
  30        3PZ         0.00000  -0.12186  -0.00000  -0.00600  -0.00000
  31        4S          0.22431   0.00000  -0.31441   0.00000  -0.07645
  32        4PX         0.03218  -0.00000   0.41572   0.00000   0.02882
  33        4PY        -0.22414   0.00000  -0.23044  -0.00000   0.01079
  34        4PZ         0.00000  -0.27341  -0.00000   0.00292  -0.00000
  35 3   H  1S         -0.04380  -0.06802  -0.01729   0.00530  -0.00665
  36        2S         -0.13502  -0.17525  -0.08262   0.09820  -0.01745
  37        3S         -0.90421  -1.31856  -0.01459  -0.47968  -0.20685
  38        4PX         0.00933   0.00251   0.01299  -0.00362   0.00004
  39        4PY         0.03258  -0.00297  -0.00415  -0.00492   0.00080
  40        4PZ        -0.00070   0.02964   0.00198  -0.00577  -0.00148
  41 4   H  1S          0.07173   0.00000  -0.04220   0.00000  -0.01404
  42        2S          0.17321   0.00000  -0.17526   0.00000  -0.13338
  43        3S          1.42902   0.00000  -0.50775  -0.00000   0.44475
  44        4PX         0.00138  -0.00000   0.01319  -0.00000   0.00883
  45        4PY         0.03097   0.00000  -0.01140   0.00000  -0.00865
  46        4PZ        -0.00000   0.03545   0.00000   0.00266   0.00000
  47 5   H  1S         -0.04380   0.06802  -0.01729  -0.00530  -0.00665
  48        2S         -0.13502   0.17525  -0.08262  -0.09820  -0.01745
  49        3S         -0.90421   1.31856  -0.01459   0.47968  -0.20685
  50        4PX         0.00933  -0.00251   0.01299   0.00362   0.00004
  51        4PY         0.03258   0.00297  -0.00415   0.00492   0.00080
  52        4PZ         0.00070   0.02964  -0.00198  -0.00577   0.00148
  53 6   H  1S         -0.03555  -0.00000   0.06245   0.00000  -0.00460
  54        2S         -0.01921  -0.00000   0.07082   0.00000  -0.14236
  55        3S         -0.07577  -0.00000   1.55184  -0.00000   0.53811
  56        4PX         0.00238   0.00000  -0.02149   0.00000  -0.00876
  57        4PY         0.00828  -0.00000   0.01557  -0.00000   0.01086
  58        4PZ         0.00000  -0.00861  -0.00000  -0.01234  -0.00000
                          21        22        23        24        25
                           V         V         V         V         V
     Eigenvalues --     0.22756   0.28201   0.35061   0.36711   0.44543
   1 1   Si 1S          0.00866  -0.00000   0.00122   0.00000  -0.02982
   2        2S          0.02412   0.00071   0.00367   0.00000  -0.07923
   3        3S         -0.05875  -0.00860  -0.01145  -0.00000   0.15696
   4        4S         -0.09384   0.03157  -0.00213   0.00000   0.50729
   5        5S         -0.02278  -0.58541  -0.19599  -0.00000  -2.88479
   6        6S          1.51106   0.92384   0.32161   0.00000   5.78687
   7        7PX         0.08063  -0.04117  -0.01070  -0.00000   0.00477
   8        7PY         0.00459  -0.00325   0.03375   0.00000   0.00159
   9        7PZ        -0.00000   0.00000   0.00000  -0.04951   0.00000
  10        8PX         0.12420  -0.06472  -0.01903  -0.00000   0.00361
  11        8PY         0.00700  -0.00554   0.05686   0.00000   0.00404
  12        8PZ        -0.00000   0.00000   0.00000  -0.07997   0.00000
  13        9PX        -0.05153   0.01623   0.02684   0.00000   0.04317
  14        9PY        -0.00686  -0.00519  -0.02879  -0.00000  -0.01823
  15        9PZ         0.00000   0.00000   0.00000   0.01550  -0.00000
  16       10PX        -1.50724   0.86138   0.21181   0.00000  -0.27817
  17       10PY        -0.07426   0.08352  -0.61550  -0.00000   0.02069
  18       10PZ         0.00000  -0.00000  -0.00000   1.00772  -0.00000
  19       11PX         1.40776  -0.80739  -0.45991  -0.00000   0.66424
  20       11PY        -0.05745  -0.25343   1.62560   0.00000  -0.00508
  21       11PZ         0.00000   0.00000   0.00000  -1.85388   0.00000
  22 2   O  1S          0.02044   0.00085   0.00898   0.00000   0.00438
  23        2S          0.03374   0.00273   0.01528   0.00000   0.00624
  24        2PX        -0.13025  -0.02614   0.00969   0.00000   0.03363
  25        2PY        -0.01821   0.04402  -0.02314  -0.00000  -0.00888
  26        2PZ        -0.00000   0.00000  -0.00000  -0.01682   0.00000
  27        3S         -0.09636  -0.04868  -0.03780  -0.00000   0.01360
  28        3PX        -0.16911  -0.05491   0.01549   0.00000   0.06263
  29        3PY        -0.02827   0.06538  -0.04749  -0.00000  -0.02678
  30        3PZ        -0.00000   0.00000  -0.00000  -0.02636   0.00000
  31        4S         -0.42315   0.27708  -0.32473  -0.00000  -0.58208
  32        4PX        -0.59386  -0.02337   0.28351   0.00000  -0.17760
  33        4PY        -0.08634   0.28216  -0.39867  -0.00000  -0.06225
  34        4PZ        -0.00000   0.00000  -0.00000   0.00543  -0.00000
  35 3   H  1S         -0.04799  -0.08422   0.00351  -0.06596   0.04754
  36        2S         -0.25209  -0.86710   0.27923  -1.25384   0.28324
  37        3S         -0.18481   0.69147  -0.85948   2.27898  -1.70063
  38        4PX        -0.01026   0.02120   0.00412   0.01407   0.00449
  39        4PY         0.00008   0.01391  -0.02712   0.01980   0.01291
  40        4PZ         0.00242   0.02036  -0.01795   0.07055   0.02527
  41 4   H  1S         -0.04037  -0.05983  -0.09309  -0.00000   0.04766
  42        2S         -0.11990  -0.45385  -1.38212  -0.00000   0.31463
  43        3S         -0.53546  -0.07131   2.46538   0.00000  -1.76417
  44        4PX        -0.00912   0.02216  -0.00191  -0.00000   0.00400
  45        4PY         0.00828   0.00268  -0.07039  -0.00000  -0.02226
  46        4PZ         0.00000  -0.00000  -0.00000   0.03742  -0.00000
  47 5   H  1S         -0.04799  -0.08422   0.00351   0.06596   0.04754
  48        2S         -0.25209  -0.86710   0.27923   1.25384   0.28324
  49        3S         -0.18481   0.69147  -0.85948  -2.27898  -1.70063
  50        4PX        -0.01026   0.02120   0.00412  -0.01407   0.00449
  51        4PY         0.00008   0.01391  -0.02712  -0.01980   0.01291
  52        4PZ        -0.00242  -0.02036   0.01795   0.07055  -0.02527
  53 6   H  1S          0.01396  -0.04843   0.08411   0.00000  -0.00041
  54        2S          0.06793  -0.48417   1.14428   0.00000   0.18712
  55        3S          0.03519  -0.32626  -1.06975  -0.00000  -0.25503
  56        4PX         0.00639   0.00112   0.04472   0.00000   0.05748
  57        4PY        -0.01310   0.02193  -0.02984  -0.00000   0.03310
  58        4PZ         0.00000   0.00000  -0.00000  -0.01731   0.00000
                          26        27        28        29        30
                           V         V         V         V         V
     Eigenvalues --     0.44899   0.80224   0.81041   0.90684   0.95183
   1 1   Si 1S          0.00131  -0.00015  -0.00000   0.00059   0.00095
   2        2S          0.00358  -0.00017  -0.00000   0.00291   0.00246
   3        3S         -0.00808  -0.00204  -0.00000  -0.01999  -0.00428
   4        4S         -0.01760   0.01380   0.00000   0.05330  -0.01969
   5        5S          0.07809  -0.03806  -0.00000  -0.14091   0.15647
   6        6S         -0.44423  -0.24844  -0.00000  -1.02010  -0.50986
   7        7PX        -0.00802  -0.00876  -0.00000   0.06479   0.07151
   8        7PY        -0.03723  -0.00292  -0.00000  -0.01559   0.12517
   9        7PZ         0.00000   0.00000  -0.01194   0.00000   0.00000
  10        8PX        -0.01403  -0.02347  -0.00000   0.12054   0.15804
  11        8PY        -0.05816  -0.01170  -0.00000  -0.03135   0.27199
  12        8PZ         0.00000   0.00000  -0.02744   0.00000   0.00000
  13        9PX         0.01979   0.09182   0.00000  -0.46594  -0.74056
  14        9PY        -0.00270   0.11932   0.00000   0.09413  -1.26596
  15        9PZ        -0.00000  -0.00000   0.14529  -0.00000  -0.00000
  16       10PX         0.21063   0.11059   0.00000   1.12895   1.03037
  17       10PY         0.88024  -0.46423  -0.00000   0.18141   1.56449
  18       10PZ        -0.00000   0.00000  -0.31813   0.00000   0.00000
  19       11PX        -0.34986  -0.23286  -0.00000  -0.24804  -0.42896
  20       11PY        -1.05001  -0.13942  -0.00000  -0.36055  -0.46532
  21       11PZ         0.00000   0.00000  -0.46237   0.00000  -0.00000
  22 2   O  1S          0.01864  -0.01060  -0.00000  -0.01096   0.03853
  23        2S          0.03244  -0.01747  -0.00000  -0.01957   0.07441
  24        2PX         0.07377  -0.04118  -0.00000  -0.24379  -0.02106
  25        2PY        -0.10747  -0.24251  -0.00000   0.02110  -0.03661
  26        2PZ        -0.00000   0.00000  -0.26116   0.00000  -0.00000
  27        3S         -0.11650   0.01511   0.00000   0.12770  -0.52745
  28        3PX         0.11470  -0.17277  -0.00000  -0.74049   0.00465
  29        3PY        -0.18350  -0.72158  -0.00000   0.02286  -0.03982
  30        3PZ        -0.00000   0.00000  -0.80924   0.00000  -0.00000
  31        4S         -0.44813   0.62734   0.00000  -0.26992   1.08142
  32        4PX         0.56965  -0.05436   0.00000   1.88805   0.03194
  33        4PY        -0.64691   1.58972   0.00000  -0.46623   0.20008
  34        4PZ        -0.00000  -0.00000   1.23710  -0.00000   0.00000
  35 3   H  1S         -0.02877  -0.00713  -0.01083   0.00521   0.03565
  36        2S         -0.56539   0.09411   0.06299  -0.00724  -0.10353
  37        3S          1.01827   0.14763   0.32413   0.30190   0.05188
  38        4PX         0.02322  -0.03643  -0.04657   0.09105   0.12565
  39        4PY         0.04879  -0.10075   0.05158   0.04306   0.18455
  40        4PZ        -0.00362   0.06783  -0.03016   0.00362   0.11882
  41 4   H  1S          0.03153   0.01004   0.00000   0.01088  -0.03846
  42        2S          0.83774  -0.22661  -0.00000   0.27277   0.11811
  43        3S         -1.21825   0.09977   0.00000  -0.29326   0.27622
  44        4PX        -0.03185   0.10842   0.00000  -0.02164   0.01191
  45        4PY         0.04289  -0.00311   0.00000  -0.07523   0.24732
  46        4PZ        -0.00000   0.00000  -0.11728   0.00000   0.00000
  47 5   H  1S         -0.02877  -0.00713   0.01083   0.00521   0.03565
  48        2S         -0.56539   0.09411  -0.06299  -0.00724  -0.10353
  49        3S          1.01827   0.14763  -0.32413   0.30190   0.05188
  50        4PX         0.02322  -0.03643   0.04657   0.09105   0.12565
  51        4PY         0.04879  -0.10075  -0.05158   0.04306   0.18455
  52        4PZ         0.00362  -0.06783  -0.03016  -0.00362  -0.11882
  53 6   H  1S          0.11963  -0.02204  -0.00000  -0.01161   0.00157
  54        2S          1.84767  -0.72633  -0.00000   0.56766  -0.21125
  55        3S         -1.00025  -0.23938  -0.00000   0.64926  -0.29660
  56        4PX         0.02801  -0.10112  -0.00000   0.14436  -0.08485
  57        4PY        -0.00845   0.15596   0.00000  -0.12662   0.07915
  58        4PZ         0.00000  -0.00000   0.02748  -0.00000  -0.00000
                          31        32        33        34        35
                           V         V         V         V         V
     Eigenvalues --     0.96564   0.97503   1.19636   1.24496   1.26312
   1 1   Si 1S          0.00000  -0.00004   0.00196  -0.00000  -0.00000
   2        2S          0.00000  -0.00077   0.00651  -0.00000  -0.00000
   3        3S         -0.00000   0.00814  -0.02606   0.00000   0.00000
   4        4S         -0.00000  -0.02585   0.01354   0.00000  -0.00000
   5        5S         -0.00000   0.08471   0.28281  -0.00000   0.00000
   6        6S          0.00000  -0.09258  -1.23704   0.00000   0.00000
   7        7PX        -0.00000   0.11176  -0.07352   0.00000   0.00000
   8        7PY        -0.00000  -0.07711  -0.01141  -0.00000   0.00000
   9        7PZ         0.14838  -0.00000  -0.00000  -0.00190  -0.00155
  10        8PX        -0.00000   0.25372  -0.18340   0.00000   0.00000
  11        8PY        -0.00000  -0.17195  -0.02670  -0.00000   0.00000
  12        8PZ         0.32498  -0.00000  -0.00000  -0.00388  -0.00352
  13        9PX         0.00000  -1.20971   0.92488  -0.00000  -0.00000
  14        9PY         0.00000   0.85445   0.15095   0.00000  -0.00000
  15        9PZ        -1.53588   0.00000   0.00000   0.01791   0.01686
  16       10PX        -0.00000   1.51282  -0.81853   0.00000   0.00000
  17       10PY        -0.00000  -1.27125  -0.24225   0.00000   0.00000
  18       10PZ         1.95086  -0.00000  -0.00000  -0.01821  -0.01641
  19       11PX         0.00000  -0.73338   0.47204  -0.00000  -0.00000
  20       11PY         0.00000   0.81314   0.22749  -0.00000   0.00000
  21       11PZ        -0.77452  -0.00000  -0.00000  -0.07763  -0.00306
  22 2   O  1S         -0.00000   0.04617   0.08986  -0.00000  -0.00000
  23        2S         -0.00000   0.08812   0.17886  -0.00000  -0.00000
  24        2PX         0.00000   0.01603  -0.03406  -0.00000   0.00000
  25        2PY         0.00000  -0.00236   0.00230   0.00000  -0.00000
  26        2PZ        -0.03592  -0.00000  -0.00000  -0.04005  -0.00071
  27        3S          0.00000  -0.62179  -1.34118   0.00000   0.00000
  28        3PX         0.00000   0.15043  -0.23759  -0.00000   0.00000
  29        3PY         0.00000   0.05253   0.10080   0.00000  -0.00000
  30        3PZ        -0.08771  -0.00000   0.00000  -0.08595  -0.00164
  31        4S         -0.00000   1.42007   2.00478  -0.00000   0.00000
  32        4PX        -0.00000  -0.36138   0.09021   0.00000  -0.00000
  33        4PY        -0.00000   0.47057   0.14344  -0.00000   0.00000
  34        4PZ         0.04330   0.00000   0.00000   0.08970   0.00253
  35 3   H  1S          0.04435  -0.00176   0.03399   0.00055   0.00094
  36        2S         -0.19517   0.04744   0.15939  -0.00125  -0.00062
  37        3S          0.00237  -0.09168   0.11489   0.05334   0.00763
  38        4PX         0.07662   0.07021   0.15698   0.61967   0.01605
  39        4PY         0.10723  -0.08207  -0.05308  -0.23474   0.49095
  40        4PZ         0.30553   0.01666  -0.05122  -0.11381  -0.29206
  41 4   H  1S         -0.00000   0.02699   0.01883  -0.00000   0.00000
  42        2S         -0.00000  -0.34621   0.08172   0.00000  -0.00000
  43        3S          0.00000   0.44079   0.29952  -0.00000   0.00000
  44        4PX         0.00000   0.19440  -0.02751   0.00000  -0.00000
  45        4PY        -0.00000  -0.27557  -0.07987   0.00000  -0.00000
  46        4PZ         0.13143  -0.00000  -0.00000   0.24163   0.59202
  47 5   H  1S         -0.04435  -0.00176   0.03399  -0.00055  -0.00094
  48        2S          0.19517   0.04744   0.15939   0.00125   0.00062
  49        3S         -0.00237  -0.09168   0.11489  -0.05334  -0.00763
  50        4PX        -0.07662   0.07021   0.15698  -0.61967  -0.01605
  51        4PY        -0.10723  -0.08207  -0.05308   0.23474  -0.49095
  52        4PZ         0.30553  -0.01666   0.05122  -0.11381  -0.29206
  53 6   H  1S          0.00000   0.05865  -0.02844  -0.00000  -0.00000
  54        2S         -0.00000  -0.55437  -0.54589   0.00000  -0.00000
  55        3S         -0.00000  -0.61466  -0.02289   0.00000  -0.00000
  56        4PX        -0.00000  -0.25952   0.17890   0.00000  -0.00000
  57        4PY         0.00000   0.04437   0.37682  -0.00000  -0.00000
  58        4PZ        -0.04489  -0.00000   0.00000   0.17144   0.00479
                          36        37        38        39        40
                           V         V         V         V         V
     Eigenvalues --     1.27166   1.36581   1.46288   1.48238   1.52667
   1 1   Si 1S          0.00078   0.00000   0.00169   0.00000  -0.00235
   2        2S          0.00248   0.00000   0.00484   0.00000  -0.00710
   3        3S         -0.00918  -0.00000  -0.01282  -0.00000   0.02242
   4        4S          0.00225  -0.00000  -0.02518   0.00000   0.02251
   5        5S          0.05955   0.00000   0.17342  -0.00000  -0.27911
   6        6S         -0.34357  -0.00000  -0.10565   0.00000   0.23355
   7        7PX        -0.01067   0.00000   0.03336  -0.00000  -0.06267
   8        7PY        -0.00438   0.00000   0.06525  -0.00000   0.04206
   9        7PZ         0.00000  -0.01789   0.00000   0.08209  -0.00000
  10        8PX        -0.02987   0.00000   0.07410  -0.00000  -0.14128
  11        8PY        -0.01064   0.00000   0.16074  -0.00000   0.09692
  12        8PZ         0.00000  -0.04457   0.00000   0.19429  -0.00000
  13        9PX         0.16565  -0.00000  -0.38093   0.00000   0.77530
  14        9PY         0.04643  -0.00000  -0.91374   0.00000  -0.53548
  15        9PZ        -0.00000   0.25611  -0.00000  -1.05330   0.00000
  16       10PX        -0.10168   0.00000   0.27420  -0.00000  -0.68900
  17       10PY         0.02059   0.00000   1.26800  -0.00000   0.70439
  18       10PZ         0.00000  -0.33344   0.00000   1.30323  -0.00000
  19       11PX         0.09416  -0.00000  -0.07236  -0.00000   0.14332
  20       11PY         0.01501   0.00000  -0.19307   0.00000  -0.10745
  21       11PZ         0.00000  -0.00240  -0.00000  -0.18823   0.00000
  22 2   O  1S          0.01430  -0.00000  -0.01244  -0.00000   0.00964
  23        2S          0.02757  -0.00000  -0.02583  -0.00000   0.01967
  24        2PX        -0.02755  -0.00000   0.00206  -0.00000  -0.00922
  25        2PY         0.04632   0.00000   0.02127  -0.00000   0.03849
  26        2PZ         0.00000  -0.02438   0.00000   0.01276   0.00000
  27        3S         -0.18177   0.00000   0.22457   0.00000  -0.13778
  28        3PX        -0.10988   0.00000   0.06771  -0.00000  -0.11439
  29        3PY         0.13137  -0.00000   0.08168  -0.00000   0.04925
  30        3PZ         0.00000  -0.03117   0.00000   0.07041  -0.00000
  31        4S          0.12029  -0.00000  -0.39607  -0.00000  -0.15533
  32        4PX         0.30872  -0.00000  -0.10937   0.00000   0.61482
  33        4PY        -0.38118   0.00000  -0.57715   0.00000  -0.11919
  34        4PZ        -0.00000  -0.27942  -0.00000  -0.47256   0.00000
  35 3   H  1S          0.01087   0.03295  -0.04330  -0.06696  -0.03123
  36        2S          0.01401   0.05130  -0.19940  -0.25888   0.01989
  37        3S          0.05551   0.02832   0.10851   0.09519  -0.08707
  38        4PX        -0.33370  -0.19336  -0.04066   0.00490   0.25035
  39        4PY        -0.02892  -0.10865  -0.56660   0.07964  -0.22844
  40        4PZ         0.18263   0.18989   0.16179  -0.42571   0.06815
  41 4   H  1S         -0.00369   0.00000   0.09368  -0.00000   0.03834
  42        2S          0.07115   0.00000   0.26762  -0.00000   0.23749
  43        3S          0.01475   0.00000  -0.07670   0.00000  -0.13584
  44        4PX         0.75590  -0.00000  -0.09620   0.00000   0.24581
  45        4PY         0.27272  -0.00000  -0.26009   0.00000  -0.15804
  46        4PZ         0.00000   0.37026  -0.00000  -0.55060   0.00000
  47 5   H  1S          0.01087  -0.03295  -0.04330   0.06696  -0.03123
  48        2S          0.01401  -0.05130  -0.19940   0.25888   0.01989
  49        3S          0.05551  -0.02832   0.10851  -0.09519  -0.08707
  50        4PX        -0.33370   0.19336  -0.04066  -0.00490   0.25035
  51        4PY        -0.02892   0.10865  -0.56660  -0.07964  -0.22844
  52        4PZ        -0.18263   0.18989  -0.16179  -0.42571  -0.06815
  53 6   H  1S          0.06397  -0.00000   0.03141  -0.00000  -0.02829
  54        2S          0.18572   0.00000   0.36240  -0.00000   0.32601
  55        3S          0.07179  -0.00000  -0.03780   0.00000   0.01028
  56        4PX         0.07344   0.00000   0.35389  -0.00000  -0.64921
  57        4PY         0.04767  -0.00000   0.20024  -0.00000  -0.53823
  58        4PZ         0.00000   0.89961   0.00000   0.52820  -0.00000
                          41        42        43        44        45
                           V         V         V         V         V
     Eigenvalues --     1.65904   1.68012   1.68054   1.77528   2.04675
   1 1   Si 1S          0.00055  -0.00000   0.00165   0.01537   0.00137
   2        2S          0.00150  -0.00000   0.00464   0.04332   0.00410
   3        3S         -0.00400   0.00000  -0.01244  -0.11318  -0.01291
   4        4S         -0.00193   0.00000  -0.01694  -0.21798  -0.01305
   5        5S          0.02697  -0.00000   0.04847   0.67453   0.09533
   6        6S         -0.51355   0.00000  -0.22144   1.37702  -0.07926
   7        7PX        -0.01535   0.00000  -0.01470  -0.03461  -0.00409
   8        7PY         0.05370   0.00000  -0.06981   0.00202  -0.00454
   9        7PZ        -0.00000   0.08085   0.00000  -0.00000  -0.00000
  10        8PX        -0.02024   0.00000  -0.02242  -0.06636  -0.00905
  11        8PY         0.10991   0.00000  -0.13975   0.00489  -0.00363
  12        8PZ        -0.00000   0.15958   0.00000  -0.00000  -0.00000
  13        9PX        -0.07038   0.00000   0.00228   0.32483   0.05239
  14        9PY        -0.46581  -0.00000   0.52739  -0.00218  -0.00283
  15        9PZ         0.00000  -0.60198  -0.00000   0.00000  -0.00000
  16       10PX         1.03449  -0.00000   0.61661  -0.70047  -0.05323
  17       10PY         0.10341  -0.00000   0.23052  -0.12216   0.05471
  18       10PZ         0.00000  -0.22668  -0.00000  -0.00000   0.00000
  19       11PX        -0.02225   0.00000  -0.02290   0.24253   0.16386
  20       11PY        -0.23428  -0.00000   0.34360  -0.05315  -0.08329
  21       11PZ         0.00000  -0.44058  -0.00000   0.00000   0.00000
  22 2   O  1S          0.02983  -0.00000   0.01371  -0.03012   0.03594
  23        2S          0.06112  -0.00000   0.02801  -0.06091   0.07008
  24        2PX        -0.02975   0.00000  -0.00846   0.03711   0.10266
  25        2PY        -0.00684  -0.00000   0.02684   0.00316  -0.15252
  26        2PZ         0.00000  -0.02409  -0.00000   0.00000  -0.00000
  27        3S         -0.53539   0.00000  -0.25164   0.52265  -0.38454
  28        3PX        -0.13677   0.00000  -0.10472   0.15839   0.28509
  29        3PY        -0.01448  -0.00000   0.12027  -0.01885  -0.40741
  30        3PZ         0.00000  -0.09784  -0.00000   0.00000  -0.00000
  31        4S          1.22950  -0.00000   0.61044  -1.12741  -0.38437
  32        4PX         0.63981  -0.00000   0.49273  -0.75007   0.08572
  33        4PY         0.30777   0.00000  -0.19374  -0.15086  -0.02526
  34        4PZ        -0.00000   0.38030   0.00000  -0.00000  -0.00000
  35 3   H  1S         -0.04823   0.10429  -0.12924  -0.30222  -0.01494
  36        2S         -0.01988  -0.07822   0.06387   0.26442   0.02911
  37        3S          0.16451   0.62283  -0.33564  -0.53008  -0.06085
  38        4PX        -0.51774  -0.32558  -0.05421   0.29871   0.02027
  39        4PY         0.17904  -0.49716  -0.00566   0.29121   0.01726
  40        4PZ         0.02345  -0.40548   0.64130   0.36669   0.04412
  41 4   H  1S         -0.12214  -0.00000   0.03231  -0.32502   0.08941
  42        2S          0.10294   0.00000  -0.01348   0.24323  -0.07071
  43        3S         -0.35129  -0.00000   0.52909  -0.66919  -0.03837
  44        4PX        -0.21909   0.00000  -0.53196   0.32977  -0.02158
  45        4PY        -0.70243  -0.00000   0.37275  -0.55699  -0.00842
  46        4PZ        -0.00000   0.44640   0.00000  -0.00000  -0.00000
  47 5   H  1S         -0.04823  -0.10429  -0.12924  -0.30222  -0.01494
  48        2S         -0.01988   0.07822   0.06387   0.26442   0.02911
  49        3S          0.16451  -0.62283  -0.33564  -0.53008  -0.06085
  50        4PX        -0.51774   0.32558  -0.05421   0.29871   0.02027
  51        4PY         0.17904   0.49716  -0.00566   0.29121   0.01726
  52        4PZ        -0.02345  -0.40548  -0.64130  -0.36669  -0.04412
  53 6   H  1S         -0.00476   0.00000  -0.00138  -0.03911   1.02499
  54        2S         -0.27972  -0.00000   0.07569   0.14158  -0.71482
  55        3S          0.12764   0.00000  -0.01335   0.00130   0.74749
  56        4PX        -0.25412   0.00000  -0.21059   0.28819   0.62135
  57        4PY        -0.10619   0.00000  -0.04106   0.14977  -0.84120
  58        4PZ         0.00000  -0.26009  -0.00000   0.00000  -0.00000
                          46        47        48        49        50
                           V         V         V         V         V
     Eigenvalues --     2.35325   2.36000   2.41518   2.49460   4.80390
   1 1   Si 1S         -0.00000   0.00103  -0.00162  -0.01220   0.00000
   2        2S         -0.00000   0.00298  -0.00449  -0.03493   0.00000
   3        3S          0.00000  -0.00870   0.01091   0.09669  -0.00000
   4        4S         -0.00000  -0.01318   0.03207   0.19903   0.00000
   5        5S         -0.00000   0.05378  -0.11080  -0.81760  -0.00000
   6        6S          0.00000  -0.01627  -0.11099  -0.35216  -0.00000
   7        7PX         0.00000  -0.00773   0.01430   0.00952   0.00000
   8        7PY        -0.00000   0.00528  -0.00644   0.00388   0.00000
   9        7PZ        -0.00064  -0.00000  -0.00000  -0.00000   0.00047
  10        8PX         0.00000  -0.01464   0.02772   0.02689  -0.00000
  11        8PY         0.00000  -0.01821  -0.01835   0.00414   0.00000
  12        8PZ         0.02649   0.00000  -0.00000   0.00000  -0.00214
  13        9PX        -0.00000   0.08818  -0.17139  -0.12204  -0.00000
  14        9PY        -0.00000   0.08979   0.05497  -0.01582  -0.00000
  15        9PZ        -0.12997  -0.00000   0.00000   0.00000   0.00788
  16       10PX         0.00000  -0.03913   0.13352  -0.05536   0.00000
  17       10PY        -0.00000   0.40182   0.41623  -0.00330  -0.00000
  18       10PZ        -0.41980  -0.00000  -0.00000  -0.00000   0.05064
  19       11PX        -0.00000   0.08826  -0.12508   0.17228  -0.00000
  20       11PY         0.00000  -0.49275  -0.31996  -0.04705  -0.00000
  21       11PZ         0.48071   0.00000   0.00000   0.00000   0.23204
  22 2   O  1S          0.00000  -0.01399   0.02873   0.00660   0.00000
  23        2S          0.00000  -0.03138   0.06504   0.01164   0.00000
  24        2PX        -0.00000   0.00710   0.00306  -0.00777   0.00000
  25        2PY         0.00000  -0.02274   0.01902  -0.01094   0.00000
  26        2PZ         0.00771   0.00000   0.00000  -0.00000  -1.26635
  27        3S         -0.00000   0.26028  -0.50118  -0.13585  -0.00000
  28        3PX         0.00000  -0.15731   0.36318  -0.16658  -0.00000
  29        3PY        -0.00000   0.20479  -0.45083   0.12116  -0.00000
  30        3PZ        -0.02079   0.00000  -0.00000   0.00000   1.43276
  31        4S         -0.00000   0.22649  -0.96916   0.80104   0.00000
  32        4PX        -0.00000  -0.02683   0.45116   0.25548   0.00000
  33        4PY         0.00000   0.05619  -0.67288   0.21418   0.00000
  34        4PZ         0.10218   0.00000  -0.00000   0.00000  -0.62804
  35 3   H  1S         -1.12658   0.67691   0.09194  -0.84382  -0.00945
  36        2S          1.64501  -0.97785  -0.22318   1.31277   0.00773
  37        3S         -1.06305   0.57845   0.32356  -0.36203  -0.16037
  38        4PX        -0.06478   0.04424  -0.01534  -0.07511  -0.00038
  39        4PY        -0.09674  -0.05243  -0.09709  -0.16981   0.02052
  40        4PZ        -0.02651   0.11316   0.02661  -0.29631   0.00269
  41 4   H  1S          0.00000  -1.09663  -0.72982  -0.85068  -0.00000
  42        2S         -0.00000   1.62900   1.18095   1.31181   0.00000
  43        3S          0.00000  -1.14241  -0.67673  -0.39080  -0.00000
  44        4PX         0.00000  -0.07502  -0.03820  -0.07671  -0.00000
  45        4PY        -0.00000   0.03250   0.15343   0.33363  -0.00000
  46        4PZ         0.13887   0.00000  -0.00000   0.00000  -0.03198
  47 5   H  1S          1.12658   0.67691   0.09194  -0.84382   0.00945
  48        2S         -1.64501  -0.97785  -0.22318   1.31277  -0.00773
  49        3S          1.06305   0.57845   0.32356  -0.36203   0.16037
  50        4PX         0.06478   0.04424  -0.01534  -0.07511   0.00038
  51        4PY         0.09674  -0.05243  -0.09709  -0.16981  -0.02052
  52        4PZ        -0.02651  -0.11316  -0.02661   0.29631   0.00269
  53 6   H  1S         -0.00000   0.52598  -1.03555   0.34071  -0.00000
  54        2S          0.00000  -1.02714   2.75911  -0.90795   0.00000
  55        3S         -0.00000   0.35189  -0.57867   0.40765   0.00000
  56        4PX         0.00000  -0.27972   0.72015  -0.24006   0.00000
  57        4PY        -0.00000   0.34627  -0.96699   0.20542  -0.00000
  58        4PZ        -0.04620  -0.00000  -0.00000   0.00000  -0.02550
                          51        52        53        54        55
                           V         V         V         V         V
     Eigenvalues --     4.82298   5.14174   5.51602  11.26248  11.28352
   1 1   Si 1S         -0.01514   0.02187   0.10799   0.00108   0.00000
   2        2S         -0.05640   0.08197   0.40557   0.00408   0.00000
   3        3S          0.31305  -0.46519  -2.34444  -0.03066  -0.00000
   4        4S         -0.35945   0.55180   2.80695   0.05433   0.00000
   5        5S          0.26045  -0.41269  -2.00801  -0.06551  -0.00000
   6        6S          0.33754  -0.20579   1.52559  -0.09671  -0.00000
   7        7PX        -0.04014   0.02897   0.00057  -1.18924  -0.00000
   8        7PY        -0.00319   0.00860  -0.00186  -0.05465  -0.00000
   9        7PZ        -0.00000   0.00000   0.00000   0.00000  -1.19162
  10        8PX        -0.00032  -0.00445   0.00342   1.37369   0.00000
  11        8PY        -0.00141  -0.00149   0.00029   0.06311   0.00000
  12        8PZ        -0.00000  -0.00000   0.00000  -0.00000   1.37995
  13        9PX         0.05739  -0.00581  -0.03800  -1.01457  -0.00000
  14        9PY         0.01020  -0.02017   0.00533  -0.04580  -0.00000
  15        9PZ         0.00000  -0.00000  -0.00000   0.00000  -1.02138
  16       10PX        -0.26022   0.18817   0.01398   0.69094   0.00000
  17       10PY         0.01365   0.10634  -0.01643   0.03022   0.00000
  18       10PZ         0.00000   0.00000  -0.00000  -0.00000   0.61386
  19       11PX         0.03889   0.06608   0.09514  -0.25054  -0.00000
  20       11PY         0.18123   0.06043   0.03323   0.00785  -0.00000
  21       11PZ         0.00000   0.00000   0.00000   0.00000  -0.20825
  22 2   O  1S         -0.00496  -0.00711   0.00077   0.00191  -0.00000
  23        2S         -0.01193  -0.01300   0.00265   0.00107  -0.00000
  24        2PX        -0.91350   0.85447  -0.30561   0.06311   0.00000
  25        2PY        -0.86524  -0.94159   0.06947   0.00851  -0.00000
  26        2PZ        -0.00000  -0.00000   0.00000   0.00000  -0.00039
  27        3S          0.12636   0.04699  -0.05296   0.00960   0.00000
  28        3PX         1.06692  -1.17465   0.39688  -0.09591  -0.00000
  29        3PY         0.98548   1.27360  -0.10928  -0.01868   0.00000
  30        3PZ         0.00000   0.00000  -0.00000  -0.00000  -0.00447
  31        4S         -0.33264   0.37731   0.07095   0.07551   0.00000
  32        4PX        -0.65179   0.72913  -0.03272   0.07645   0.00000
  33        4PY        -0.48298  -0.48070   0.10096   0.00642  -0.00000
  34        4PZ        -0.00000  -0.00000   0.00000   0.00000  -0.01441
  35 3   H  1S          0.00861  -0.02407  -0.05926  -0.00489   0.00240
  36        2S         -0.05667   0.08560   0.26734  -0.00086  -0.03755
  37        3S         -0.11876  -0.03021  -0.39560   0.03836   0.05097
  38        4PX         0.02706  -0.03642  -0.04973  -0.02636  -0.02683
  39        4PY        -0.00004  -0.03637  -0.07331  -0.02180  -0.03766
  40        4PZ         0.03948  -0.01959  -0.12370  -0.03334  -0.06875
  41 4   H  1S          0.01558  -0.01156  -0.05577  -0.00352  -0.00000
  42        2S         -0.06574   0.12350   0.25213   0.00114   0.00000
  43        3S          0.08048   0.02515  -0.35214   0.05244  -0.00000
  44        4PX         0.02630  -0.01487  -0.05316  -0.02272   0.00000
  45        4PY        -0.01971   0.04628   0.14436   0.03496  -0.00000
  46        4PZ        -0.00000  -0.00000  -0.00000  -0.00000  -0.00469
  47 5   H  1S          0.00861  -0.02407  -0.05926  -0.00489  -0.00240
  48        2S         -0.05667   0.08560   0.26734  -0.00086   0.03755
  49        3S         -0.11876  -0.03021  -0.39560   0.03836  -0.05097
  50        4PX         0.02706  -0.03642  -0.04973  -0.02636   0.02683
  51        4PY        -0.00004  -0.03637  -0.07331  -0.02180   0.03766
  52        4PZ        -0.03948   0.01959   0.12370   0.03334  -0.06875
  53 6   H  1S         -0.07538  -0.26305   0.05362  -0.02498   0.00000
  54        2S          0.18319   0.00239  -0.04570   0.05382   0.00000
  55        3S         -0.15489   0.16355  -0.08722  -0.07121   0.00000
  56        4PX        -0.00013  -0.29152  -0.03796   0.02680  -0.00000
  57        4PY         0.01374   0.29426  -0.08494   0.01063   0.00000
  58        4PZ        -0.00000   0.00000  -0.00000   0.00000   0.00390
                          56        57        58
                           V         V         V
     Eigenvalues --    11.29440  49.80428 140.92712
   1 1   Si 1S         -0.00005   0.00006  -1.55014
   2        2S         -0.00017   0.00009   1.86073
   3        3S          0.00118  -0.00210  -1.26341
   4        4S         -0.00153   0.00796   0.83066
   5        5S          0.00286  -0.00033  -0.42402
   6        6S         -0.02115  -0.13163   0.30209
   7        7PX         0.05492  -0.00062  -0.00132
   8        7PY        -1.19055   0.00042  -0.00001
   9        7PZ         0.00000   0.00000  -0.00000
  10        8PX        -0.06383   0.00058   0.00363
  11        8PY         1.38038  -0.00104  -0.00000
  12        8PZ        -0.00000  -0.00000   0.00000
  13        9PX         0.05075   0.00324  -0.00895
  14        9PY        -1.02822   0.00304   0.00031
  15        9PZ         0.00000   0.00000  -0.00000
  16       10PX        -0.02879   0.04690   0.01567
  17       10PY         0.62589  -0.00064   0.00015
  18       10PZ        -0.00000  -0.00000  -0.00000
  19       11PX         0.02212  -0.00070   0.02127
  20       11PY        -0.21981   0.01551   0.00440
  21       11PZ         0.00000  -0.00000   0.00000
  22 2   O  1S         -0.00061  -2.24637  -0.00032
  23        2S         -0.00066   2.33487   0.00041
  24        2PX         0.00826  -0.00076  -0.00450
  25        2PY        -0.00586   0.00844  -0.00047
  26        2PZ        -0.00000   0.00000  -0.00000
  27        3S          0.00936  -0.27346  -0.00904
  28        3PX        -0.02003   0.00579   0.00667
  29        3PY         0.01115  -0.03440   0.00147
  30        3PZ         0.00000  -0.00000   0.00000
  31        4S         -0.00679   0.22255   0.02703
  32        4PX         0.03132   0.05568   0.03332
  33        4PY        -0.02946   0.01448   0.01123
  34        4PZ         0.00000   0.00000   0.00000
  35 3   H  1S          0.00096  -0.00425  -0.00847
  36        2S         -0.02065   0.01448   0.04905
  37        3S          0.03351   0.01783  -0.07843
  38        4PX        -0.01630  -0.00796  -0.00993
  39        4PY        -0.02789  -0.00253  -0.01298
  40        4PZ        -0.03644  -0.00226  -0.02149
  41 4   H  1S         -0.00715  -0.00295  -0.00781
  42        2S          0.05572   0.01117   0.04816
  43        3S         -0.07131   0.03633  -0.07332
  44        4PX         0.03198  -0.00743  -0.00983
  45        4PY        -0.09425   0.00428   0.02530
  46        4PZ         0.00000  -0.00000  -0.00000
  47 5   H  1S          0.00096  -0.00425  -0.00847
  48        2S         -0.02065   0.01448   0.04905
  49        3S          0.03351   0.01783  -0.07843
  50        4PX        -0.01630  -0.00796  -0.00993
  51        4PY        -0.02789  -0.00253  -0.01298
  52        4PZ         0.03644   0.00226   0.02149
  53 6   H  1S          0.00512  -0.00128   0.00168
  54        2S          0.00126   0.02734  -0.00920
  55        3S          0.02847  -0.02688  -0.00895
  56        4PX        -0.01599   0.02414  -0.01417
  57        4PY         0.00396  -0.04660  -0.00508
  58        4PZ        -0.00000  -0.00000  -0.00000
     Density Matrix:
                           1         2         3         4         5
   1 1   Si 1S          0.37763
   2        2S          0.61539   1.03255
   3        3S         -0.12306  -0.33312   0.63319
   4        4S         -0.15322  -0.39571   0.70802   0.80848
   5        5S          0.01696   0.04630  -0.11737  -0.22449   0.56528
   6        6S          0.01832   0.05078  -0.11050  -0.15611   0.21325
   7        7PX        -0.00053  -0.00143   0.00349   0.00376  -0.00539
   8        7PY        -0.00001  -0.00003   0.00007   0.00012   0.00055
   9        7PZ        -0.00000  -0.00000   0.00000  -0.00000   0.00000
  10        8PX        -0.00058  -0.00168   0.00471   0.00481  -0.00786
  11        8PY        -0.00002  -0.00005   0.00012   0.00017   0.00112
  12        8PZ         0.00000   0.00000   0.00000  -0.00000   0.00000
  13        9PX         0.00062   0.00172  -0.00434  -0.00541   0.00515
  14        9PY        -0.00007  -0.00020   0.00044   0.00080  -0.00345
  15        9PZ        -0.00000  -0.00000   0.00000   0.00000  -0.00000
  16       10PX         0.00215   0.00596  -0.01374  -0.02049   0.03303
  17       10PY         0.00056   0.00156  -0.00364  -0.00584   0.00936
  18       10PZ         0.00000   0.00000  -0.00000  -0.00000   0.00000
  19       11PX         0.00129   0.00361  -0.00808  -0.01131   0.01546
  20       11PY         0.00112   0.00309  -0.00700  -0.01094   0.01984
  21       11PZ        -0.00000  -0.00000   0.00000   0.00000  -0.00000
  22 2   O  1S         -0.00036  -0.00095   0.00179   0.00326  -0.00654
  23        2S         -0.00057  -0.00150   0.00278   0.00519  -0.01006
  24        2PX         0.00415   0.01134  -0.02534  -0.04354   0.09187
  25        2PY         0.00091   0.00253  -0.00608  -0.00879   0.01563
  26        2PZ         0.00000   0.00000  -0.00000   0.00000   0.00000
  27        3S          0.00137   0.00352  -0.00599  -0.01191   0.02174
  28        3PX         0.00623   0.01704  -0.03814  -0.06513   0.13585
  29        3PY         0.00134   0.00373  -0.00895  -0.01312   0.02365
  30        3PZ         0.00000   0.00000  -0.00000   0.00000   0.00000
  31        4S          0.00010   0.00018   0.00141  -0.00148   0.00674
  32        4PX         0.00429   0.01183  -0.02618  -0.04452   0.09167
  33        4PY         0.00244   0.00678  -0.01579  -0.02442   0.04643
  34        4PZ         0.00000   0.00000  -0.00000  -0.00000   0.00000
  35 3   H  1S          0.00423   0.01159  -0.02654  -0.04257   0.07965
  36        2S          0.00718   0.01988  -0.04537  -0.07054   0.12285
  37        3S         -0.00007  -0.00035  -0.00038  -0.00527   0.02654
  38        4PX        -0.00035  -0.00099   0.00229   0.00348  -0.00570
  39        4PY        -0.00048  -0.00137   0.00321   0.00486  -0.00801
  40        4PZ        -0.00079  -0.00225   0.00526   0.00796  -0.01298
  41 4   H  1S          0.00448   0.01228  -0.02819  -0.04511   0.08679
  42        2S          0.00788   0.02184  -0.05012  -0.07789   0.14194
  43        3S          0.00154   0.00410  -0.01059  -0.02119   0.05905
  44        4PX        -0.00033  -0.00095   0.00220   0.00334  -0.00565
  45        4PY         0.00105   0.00299  -0.00703  -0.01068   0.01841
  46        4PZ         0.00000   0.00000  -0.00000  -0.00000   0.00000
  47 5   H  1S          0.00423   0.01159  -0.02654  -0.04257   0.07965
  48        2S          0.00718   0.01988  -0.04537  -0.07054   0.12285
  49        3S         -0.00007  -0.00035  -0.00038  -0.00527   0.02654
  50        4PX        -0.00035  -0.00099   0.00229   0.00348  -0.00570
  51        4PY        -0.00048  -0.00137   0.00321   0.00486  -0.00801
  52        4PZ         0.00079   0.00225  -0.00526  -0.00796   0.01298
  53 6   H  1S         -0.00108  -0.00293   0.00650   0.01200  -0.02764
  54        2S         -0.00208  -0.00570   0.01265   0.02284  -0.05060
  55        3S         -0.00066  -0.00179   0.00360   0.00569  -0.00934
  56        4PX        -0.00017  -0.00052   0.00113   0.00163  -0.00209
  57        4PY         0.00043   0.00117  -0.00270  -0.00484   0.01126
  58        4PZ         0.00000   0.00000  -0.00000  -0.00000   0.00000
                           6         7         8         9        10
   6        6S          0.14564
   7        7PX        -0.01998   0.33424
   8        7PY        -0.00210  -0.00019   0.33755
   9        7PZ        -0.00000  -0.00000   0.00000   0.33725
  10        8PX        -0.03560   0.57084  -0.00028  -0.00000   0.97502
  11        8PY        -0.00381  -0.00026   0.57583   0.00000  -0.00036
  12        8PZ        -0.00000  -0.00000   0.00000   0.57536  -0.00000
  13        9PX         0.05301   0.02845   0.00025   0.00000   0.04653
  14        9PY         0.00504   0.00000   0.02254  -0.00000  -0.00008
  15        9PZ         0.00000  -0.00000  -0.00000   0.02311  -0.00000
  16       10PX         0.04059  -0.02390   0.00122   0.00000  -0.04190
  17       10PY         0.00974   0.00268  -0.04296  -0.00000   0.00465
  18       10PZ         0.00000   0.00000   0.00000  -0.04203   0.00000
  19       11PX         0.01966  -0.00266   0.00204  -0.00000  -0.00502
  20       11PY         0.00778   0.00478  -0.00771   0.00000   0.00841
  21       11PZ        -0.00000   0.00000  -0.00000  -0.00639   0.00000
  22 2   O  1S          0.02778  -0.00472  -0.00059  -0.00000  -0.00892
  23        2S          0.04222  -0.00758  -0.00096  -0.00000  -0.01429
  24        2PX        -0.02266   0.02695   0.00019   0.00000   0.04868
  25        2PY         0.01679   0.00549  -0.00330   0.00000   0.00930
  26        2PZ        -0.00000   0.00000   0.00000  -0.00578   0.00000
  27        3S         -0.11191   0.01993   0.00296   0.00000   0.03764
  28        3PX        -0.03397   0.03935   0.00060  -0.00000   0.07109
  29        3PY         0.02065   0.00895  -0.00526   0.00000   0.01530
  30        3PZ        -0.00000   0.00000   0.00000  -0.00864   0.00000
  31        4S         -0.14427   0.03245   0.00093  -0.00000   0.06015
  32        4PX        -0.05004   0.03877   0.00011   0.00000   0.06994
  33        4PY         0.01874   0.01536  -0.00243   0.00000   0.02683
  34        4PZ        -0.00000   0.00000   0.00000  -0.00574   0.00000
  35 3   H  1S          0.04728  -0.00703  -0.01191  -0.02006  -0.01237
  36        2S          0.07926  -0.01333  -0.02382  -0.04050  -0.02355
  37        3S          0.01358  -0.00562  -0.01323  -0.02347  -0.00976
  38        4PX        -0.00244   0.00017   0.00105   0.00181   0.00028
  39        4PY        -0.00513   0.00087   0.00089   0.00252   0.00153
  40        4PZ        -0.00859   0.00159   0.00258   0.00375   0.00280
  41 4   H  1S          0.04587  -0.00714   0.02376   0.00000  -0.01257
  42        2S          0.08159  -0.01297   0.04826  -0.00000  -0.02300
  43        3S          0.02139   0.00033   0.02489   0.00000   0.00070
  44        4PX        -0.00200   0.00023  -0.00191   0.00000   0.00037
  45        4PY         0.01124  -0.00171   0.00541  -0.00000  -0.00304
  46        4PZ         0.00000  -0.00000  -0.00000  -0.00054  -0.00000
  47 5   H  1S          0.04728  -0.00703  -0.01191   0.02006  -0.01237
  48        2S          0.07926  -0.01333  -0.02382   0.04050  -0.02355
  49        3S          0.01358  -0.00562  -0.01323   0.02347  -0.00976
  50        4PX        -0.00244   0.00017   0.00105  -0.00181   0.00028
  51        4PY        -0.00513   0.00087   0.00089  -0.00252   0.00153
  52        4PZ         0.00859  -0.00159  -0.00258   0.00375  -0.00280
  53 6   H  1S          0.00550  -0.00644  -0.00078  -0.00000  -0.01176
  54        2S          0.02142  -0.01614   0.00056   0.00000  -0.02933
  55        3S          0.01019  -0.00428   0.00197   0.00000  -0.00787
  56        4PX         0.00212  -0.00076  -0.00023   0.00000  -0.00142
  57        4PY         0.00129   0.00291  -0.00052  -0.00000   0.00519
  58        4PZ        -0.00000   0.00000  -0.00000  -0.00062   0.00000
                          11        12        13        14        15
  11        8PY         0.98232
  12        8PZ         0.00000   0.98159
  13        9PX         0.00030   0.00000   0.06155
  14        9PY         0.03737  -0.00000   0.00032   0.07015
  15        9PZ        -0.00000   0.03836  -0.00000   0.00000   0.06855
  16       10PX         0.00209   0.00000   0.03620  -0.00211   0.00000
  17       10PY        -0.07465  -0.00000  -0.00614   0.08080   0.00000
  18       10PZ         0.00000  -0.07309  -0.00000  -0.00000   0.07881
  19       11PX         0.00351  -0.00000   0.01462  -0.00502  -0.00000
  20       11PY        -0.01360   0.00000  -0.01228   0.02266  -0.00000
  21       11PZ        -0.00000  -0.01135  -0.00000   0.00000   0.01884
  22 2   O  1S         -0.00109  -0.00000   0.01213   0.00110   0.00000
  23        2S         -0.00178  -0.00000   0.01938   0.00181   0.00000
  24        2PX         0.00053   0.00000  -0.07171  -0.00235  -0.00000
  25        2PY        -0.00602   0.00000  -0.01106   0.00338  -0.00000
  26        2PZ         0.00000  -0.01040  -0.00000  -0.00000   0.00832
  27        3S          0.00554   0.00000  -0.05028  -0.00573  -0.00000
  28        3PX         0.00134   0.00000  -0.10410  -0.00389  -0.00000
  29        3PY        -0.00951   0.00000  -0.01840   0.00618  -0.00000
  30        3PZ         0.00000  -0.01551  -0.00000  -0.00000   0.01299
  31        4S          0.00216  -0.00000  -0.08698   0.00064   0.00000
  32        4PX         0.00044   0.00000  -0.10217  -0.00435  -0.00000
  33        4PY        -0.00454   0.00000  -0.03647   0.00032   0.00000
  34        4PZ         0.00000  -0.01051  -0.00000  -0.00000   0.00567
  35 3   H  1S         -0.02078  -0.03499   0.01720   0.02892   0.04896
  36        2S         -0.04157  -0.07059   0.03338   0.05817   0.09975
  37        3S         -0.02300  -0.04080   0.01193   0.03176   0.05676
  38        4PX         0.00182   0.00316   0.00008  -0.00238  -0.00430
  39        4PY         0.00155   0.00438  -0.00209  -0.00172  -0.00605
  40        4PZ         0.00449   0.00652  -0.00390  -0.00613  -0.00866
  41 4   H  1S          0.04141   0.00000   0.01737  -0.05765  -0.00000
  42        2S          0.08408  -0.00000   0.03270  -0.11787  -0.00000
  43        3S          0.04333   0.00000  -0.00333  -0.05905  -0.00000
  44        4PX        -0.00332   0.00000  -0.00004   0.00453   0.00000
  45        4PY         0.00941  -0.00000   0.00422  -0.01253  -0.00000
  46        4PZ        -0.00000  -0.00095   0.00000  -0.00000   0.00166
  47 5   H  1S         -0.02078   0.03499   0.01720   0.02892  -0.04896
  48        2S         -0.04157   0.07059   0.03338   0.05817  -0.09975
  49        3S         -0.02300   0.04080   0.01193   0.03176  -0.05676
  50        4PX         0.00182  -0.00316   0.00008  -0.00238   0.00430
  51        4PY         0.00155  -0.00438  -0.00209  -0.00172   0.00605
  52        4PZ        -0.00449   0.00652   0.00390   0.00613  -0.00866
  53 6   H  1S         -0.00156  -0.00000   0.01970   0.00004  -0.00000
  54        2S          0.00070   0.00000   0.04436  -0.00405  -0.00000
  55        3S          0.00336   0.00000   0.01388  -0.00566  -0.00000
  56        4PX        -0.00044   0.00000   0.00228   0.00019  -0.00000
  57        4PY        -0.00089  -0.00000  -0.00783   0.00121   0.00000
  58        4PZ        -0.00000  -0.00112  -0.00000   0.00000   0.00074
                          16        17        18        19        20
  16       10PX         0.03302
  17       10PY        -0.00925   0.11277
  18       10PZ         0.00000  -0.00000   0.11234
  19       11PX         0.01029  -0.00687  -0.00000   0.00479
  20       11PY        -0.01461   0.03830  -0.00000  -0.00289   0.02468
  21       11PZ         0.00000   0.00000   0.03695  -0.00000  -0.00000
  22 2   O  1S         -0.00403   0.00268  -0.00000   0.00292   0.00691
  23        2S         -0.00575   0.00438  -0.00000   0.00471   0.01164
  24        2PX        -0.05166   0.00848   0.00000  -0.01658   0.02406
  25        2PY        -0.02056   0.03067  -0.00000   0.00324   0.04401
  26        2PZ         0.00000   0.00000   0.04717   0.00000  -0.00000
  27        3S          0.01798  -0.01452   0.00000  -0.01247  -0.03765
  28        3PX        -0.07347   0.01120   0.00000  -0.02403   0.03334
  29        3PY        -0.03014   0.04486  -0.00000   0.00364   0.06203
  30        3PZ         0.00000   0.00000   0.06771   0.00000  -0.00000
  31        4S         -0.01382  -0.01063   0.00000  -0.02568  -0.03511
  32        4PX        -0.07326   0.01353   0.00000  -0.02331   0.03575
  33        4PY        -0.04611   0.03945   0.00000  -0.00048   0.06731
  34        4PZ         0.00000   0.00000   0.06457   0.00000  -0.00000
  35 3   H  1S          0.01641   0.03630   0.06009   0.00387   0.00694
  36        2S          0.03075   0.07102   0.11718   0.00624   0.01090
  37        3S          0.01533   0.03390   0.05915  -0.00029  -0.00326
  38        4PX        -0.00015  -0.00328  -0.00536   0.00006  -0.00113
  39        4PY        -0.00189  -0.00214  -0.00681  -0.00059  -0.00030
  40        4PZ        -0.00363  -0.00722  -0.00982  -0.00070  -0.00070
  41 4   H  1S          0.01718  -0.07318  -0.00000   0.01180  -0.01778
  42        2S          0.02893  -0.14664   0.00000   0.02334  -0.03116
  43        3S         -0.00270  -0.06758  -0.00000   0.00717  -0.00465
  44        4PX        -0.00038   0.00562   0.00000  -0.00056   0.00113
  45        4PY         0.00341  -0.01519  -0.00000   0.00287  -0.00255
  46        4PZ         0.00000  -0.00000   0.00184   0.00000  -0.00000
  47 5   H  1S          0.01641   0.03630  -0.06009   0.00387   0.00694
  48        2S          0.03075   0.07102  -0.11718   0.00624   0.01090
  49        3S          0.01533   0.03390  -0.05915  -0.00029  -0.00326
  50        4PX        -0.00015  -0.00328   0.00536   0.00006  -0.00113
  51        4PY        -0.00189  -0.00214   0.00681  -0.00059  -0.00030
  52        4PZ         0.00363   0.00722  -0.00982   0.00070   0.00070
  53 6   H  1S          0.01464   0.00985   0.00000   0.00827   0.00955
  54        2S          0.02948   0.00402  -0.00000   0.01525   0.00611
  55        3S          0.00834  -0.00470  -0.00000   0.00505   0.00083
  56        4PX         0.00103   0.00291  -0.00000   0.00135   0.00359
  57        4PY        -0.00794   0.00288   0.00000  -0.00205   0.00458
  58        4PZ         0.00000   0.00000   0.00470  -0.00000  -0.00000
                          21        22        23        24        25
  21       11PZ         0.02712
  22 2   O  1S         -0.00000   0.63855
  23        2S         -0.00000   0.56717   0.52015
  24        2PX         0.00000   0.00267   0.00403   0.12718
  25        2PY        -0.00000   0.00981   0.01505   0.01529   0.14334
  26        2PZ         0.06341   0.00000   0.00000   0.00000  -0.00000
  27        3S          0.00000  -0.12696  -0.21375  -0.01939  -0.04422
  28        3PX         0.00000  -0.00058  -0.00050   0.18286   0.01977
  29        3PY        -0.00000   0.00952   0.01598   0.02479   0.19943
  30        3PZ         0.08905   0.00000   0.00000   0.00000  -0.00000
  31        4S          0.00000  -0.12963  -0.20313   0.04957  -0.09135
  32        4PX         0.00000  -0.00839  -0.01222   0.16470   0.04410
  33        4PY        -0.00000   0.01922   0.03170   0.06418   0.19793
  34        4PZ         0.09769   0.00000   0.00000   0.00000  -0.00000
  35 3   H  1S          0.00840   0.00124   0.00191  -0.01061  -0.00737
  36        2S          0.00833   0.00200   0.00340  -0.02582  -0.02264
  37        3S         -0.00818  -0.00873  -0.01384  -0.01779  -0.03788
  38        4PX        -0.00086   0.00013   0.00007  -0.00112  -0.00032
  39        4PY         0.00001  -0.00023  -0.00041   0.00146   0.00060
  40        4PZ        -0.00005  -0.00022  -0.00037   0.00318   0.00378
  41 4   H  1S         -0.00000   0.00332   0.00533  -0.00656   0.00744
  42        2S         -0.00000   0.00906   0.01485  -0.01523   0.03465
  43        3S         -0.00000   0.00338   0.00634   0.01758   0.04375
  44        4PX         0.00000   0.00014   0.00009  -0.00107  -0.00082
  45        4PY        -0.00000   0.00153   0.00255  -0.00184   0.00622
  46        4PZ         0.00000   0.00000   0.00000  -0.00000  -0.00000
  47 5   H  1S         -0.00840   0.00124   0.00191  -0.01061  -0.00737
  48        2S         -0.00833   0.00200   0.00340  -0.02582  -0.02264
  49        3S          0.00818  -0.00873  -0.01384  -0.01779  -0.03788
  50        4PX         0.00086   0.00013   0.00007  -0.00112  -0.00032
  51        4PY        -0.00001  -0.00023  -0.00041   0.00146   0.00060
  52        4PZ        -0.00005   0.00022   0.00037  -0.00318  -0.00378
  53 6   H  1S         -0.00000  -0.01675  -0.02659  -0.05305   0.07475
  54        2S         -0.00000  -0.01143  -0.01781  -0.09169   0.08676
  55        3S         -0.00000   0.00101   0.00116  -0.02416   0.02397
  56        4PX        -0.00000  -0.00201  -0.00286  -0.00638   0.01745
  57        4PY         0.00000   0.00753   0.01145   0.01892   0.00061
  58        4PZ         0.00646   0.00000   0.00000   0.00000  -0.00000
                          26        27        28        29        30
  26        2PZ         0.17353
  27        3S         -0.00000   0.64840
  28        3PX         0.00000  -0.01242   0.26330
  29        3PY        -0.00000  -0.05301   0.03276   0.27775
  30        3PZ         0.24276  -0.00000   0.00000  -0.00000   0.33964
  31        4S         -0.00000   0.56509   0.08515  -0.11735  -0.00000
  32        4PX         0.00000   0.01935   0.23745   0.06661   0.00000
  33        4PY        -0.00000  -0.10116   0.08847   0.27601  -0.00000
  34        4PZ         0.27251  -0.00000   0.00000  -0.00000   0.38106
  35 3   H  1S         -0.01146  -0.00451  -0.01496  -0.01009  -0.01493
  36        2S         -0.04819  -0.00855  -0.03668  -0.03123  -0.06515
  37        3S         -0.06408   0.04078  -0.02432  -0.05193  -0.08832
  38        4PX         0.00067   0.00034  -0.00162  -0.00053   0.00084
  39        4PY         0.00438   0.00122   0.00209   0.00087   0.00599
  40        4PZ         0.00612   0.00087   0.00451   0.00524   0.00837
  41 4   H  1S         -0.00000  -0.01448  -0.00898   0.00825  -0.00000
  42        2S          0.00000  -0.04211  -0.02166   0.04376   0.00000
  43        3S         -0.00000  -0.02258   0.02504   0.05947  -0.00000
  44        4PX        -0.00000   0.00019  -0.00158  -0.00104  -0.00000
  45        4PY        -0.00000  -0.00746  -0.00269   0.00812  -0.00000
  46        4PZ        -0.00118  -0.00000  -0.00000  -0.00000  -0.00161
  47 5   H  1S          0.01146  -0.00451  -0.01496  -0.01009   0.01493
  48        2S          0.04819  -0.00855  -0.03668  -0.03123   0.06515
  49        3S          0.06408   0.04078  -0.02432  -0.05193   0.08832
  50        4PX        -0.00067   0.00034  -0.00162  -0.00053  -0.00084
  51        4PY        -0.00438   0.00122   0.00209   0.00087  -0.00599
  52        4PZ         0.00612  -0.00087  -0.00451  -0.00524   0.00837
  53 6   H  1S          0.00000   0.07771  -0.07532   0.10356   0.00000
  54        2S          0.00000   0.05415  -0.13165   0.11865   0.00000
  55        3S          0.00000  -0.00057  -0.03499   0.03246   0.00000
  56        4PX         0.00000   0.00720  -0.00918   0.02420   0.00000
  57        4PY        -0.00000  -0.03204   0.02652   0.00098  -0.00000
  58        4PZ         0.01776  -0.00000   0.00000  -0.00000   0.02484
                          31        32        33        34        35
  31        4S          0.56183
  32        4PX         0.09540   0.22368
  33        4PY        -0.13589   0.11327   0.29029
  34        4PZ        -0.00000   0.00000  -0.00000   0.42885
  35 3   H  1S         -0.01337  -0.02171  -0.01557  -0.02403   0.07153
  36        2S         -0.02167  -0.04879  -0.04296  -0.08813   0.14226
  37        3S          0.04105  -0.03017  -0.06083  -0.10795   0.07766
  38        4PX         0.00005  -0.00111  -0.00064   0.00158  -0.00548
  39        4PY         0.00249   0.00272   0.00140   0.00764  -0.00801
  40        4PZ         0.00197   0.00603   0.00654   0.01071  -0.01383
  41 4   H  1S         -0.03779  -0.01250   0.01122  -0.00000  -0.00993
  42        2S         -0.09353  -0.02294   0.04914   0.00000  -0.02735
  43        3S         -0.04129   0.02796   0.06850  -0.00000  -0.02293
  44        4PX         0.00106  -0.00132  -0.00169  -0.00000   0.00134
  45        4PY        -0.01416  -0.00269   0.00866  -0.00000  -0.00238
  46        4PZ        -0.00000  -0.00000  -0.00000  -0.00206   0.00146
  47 5   H  1S         -0.01337  -0.02171  -0.01557   0.02403  -0.01044
  48        2S         -0.02167  -0.04879  -0.04296   0.08813  -0.02994
  49        3S          0.04105  -0.03017  -0.06083   0.10795  -0.02823
  50        4PX         0.00005  -0.00111  -0.00064  -0.00158   0.00166
  51        4PY         0.00249   0.00272   0.00140  -0.00764   0.00276
  52        4PZ        -0.00197  -0.00603  -0.00654   0.01071  -0.00159
  53 6   H  1S          0.00347  -0.04721   0.07723   0.00000  -0.00085
  54        2S         -0.04551  -0.09663   0.08175   0.00000   0.00053
  55        3S         -0.02641  -0.02664   0.02408   0.00000  -0.00108
  56        4PX        -0.00518  -0.00425   0.02063   0.00000  -0.00033
  57        4PY        -0.01674   0.02179   0.00886  -0.00000  -0.00062
  58        4PZ        -0.00000   0.00000  -0.00000   0.02790  -0.00125
                          36        37        38        39        40
  36        2S          0.28949
  37        3S          0.16764   0.11558
  38        4PX        -0.01091  -0.00595   0.00047
  39        4PY        -0.01645  -0.00965   0.00061   0.00100
  40        4PZ        -0.02831  -0.01675   0.00103   0.00160   0.00282
  41 4   H  1S         -0.02637  -0.02479   0.00134  -0.00021   0.00276
  42        2S         -0.06665  -0.05875   0.00310   0.00025   0.00720
  43        3S         -0.05193  -0.04102   0.00165   0.00114   0.00592
  44        4PX         0.00309   0.00230  -0.00011  -0.00005  -0.00033
  45        4PY        -0.00638  -0.00675   0.00030  -0.00004   0.00071
  46        4PZ         0.00317   0.00210  -0.00013  -0.00020  -0.00029
  47 5   H  1S         -0.02994  -0.02823   0.00166   0.00276   0.00159
  48        2S         -0.07912  -0.06879   0.00400   0.00698   0.00521
  49        3S         -0.06879  -0.04975   0.00309   0.00592   0.00547
  50        4PX         0.00400   0.00309  -0.00016  -0.00032  -0.00030
  51        4PY         0.00698   0.00592  -0.00032  -0.00051  -0.00056
  52        4PZ        -0.00521  -0.00547   0.00030   0.00056   0.00026
  53 6   H  1S         -0.00452  -0.01000   0.00044  -0.00012   0.00112
  54        2S         -0.00156  -0.01221   0.00090  -0.00054   0.00080
  55        3S         -0.00319  -0.00621   0.00037  -0.00013   0.00050
  56        4PX        -0.00151  -0.00326   0.00003  -0.00000   0.00032
  57        4PY        -0.00168  -0.00285  -0.00021   0.00011   0.00021
  58        4PZ        -0.00510  -0.00665   0.00008   0.00046   0.00064
                          41        42        43        44        45
  41 4   H  1S          0.07161
  42        2S          0.14204   0.28670
  43        3S          0.06521   0.13646   0.07610
  44        4PX        -0.00506  -0.01013  -0.00510   0.00039
  45        4PY         0.01609   0.03264   0.01569  -0.00113   0.00378
  46        4PZ         0.00000   0.00000   0.00000  -0.00000   0.00000
  47 5   H  1S         -0.00993  -0.02735  -0.02293   0.00134  -0.00238
  48        2S         -0.02637  -0.06665  -0.05193   0.00309  -0.00638
  49        3S         -0.02479  -0.05875  -0.04102   0.00230  -0.00675
  50        4PX         0.00134   0.00310   0.00165  -0.00011   0.00030
  51        4PY        -0.00021   0.00025   0.00114  -0.00005  -0.00004
  52        4PZ        -0.00276  -0.00720  -0.00592   0.00033  -0.00071
  53 6   H  1S          0.00811   0.02742   0.01784  -0.00017   0.00416
  54        2S          0.01760   0.04962   0.02334  -0.00036   0.00703
  55        3S          0.01022   0.02452   0.01159  -0.00048   0.00318
  56        4PX         0.00165   0.00579   0.00475  -0.00007   0.00092
  57        4PY        -0.00183  -0.00390   0.00113  -0.00004  -0.00038
  58        4PZ        -0.00000  -0.00000  -0.00000  -0.00000  -0.00000
                          46        47        48        49        50
  46        4PZ         0.00006
  47 5   H  1S         -0.00146   0.07153
  48        2S         -0.00317   0.14226   0.28949
  49        3S         -0.00210   0.07766   0.16764   0.11558
  50        4PX         0.00013  -0.00548  -0.01091  -0.00595   0.00047
  51        4PY         0.00020  -0.00801  -0.01645  -0.00965   0.00061
  52        4PZ        -0.00029   0.01383   0.02831   0.01675  -0.00103
  53 6   H  1S         -0.00000  -0.00085  -0.00452  -0.01000   0.00044
  54        2S         -0.00000   0.00053  -0.00156  -0.01221   0.00090
  55        3S         -0.00000  -0.00108  -0.00319  -0.00621   0.00037
  56        4PX        -0.00000  -0.00033  -0.00151  -0.00326   0.00003
  57        4PY         0.00000  -0.00062  -0.00168  -0.00285  -0.00021
  58        4PZ        -0.00012   0.00125   0.00510   0.00665  -0.00008
                          51        52        53        54        55
  51        4PY         0.00100
  52        4PZ        -0.00160   0.00282
  53 6   H  1S         -0.00012  -0.00112   0.08260
  54        2S         -0.00054  -0.00080   0.10487   0.14231
  55        3S         -0.00013  -0.00050   0.02631   0.03733   0.01054
  56        4PX        -0.00000  -0.00032   0.01484   0.01852   0.00479
  57        4PY         0.00011  -0.00021  -0.01329  -0.01821  -0.00424
  58        4PZ        -0.00046   0.00064  -0.00000  -0.00000  -0.00000
                          56        57        58
  56        4PX         0.00288
  57        4PY        -0.00172   0.00426
  58        4PZ        -0.00000   0.00000   0.00182
    Full Mulliken population analysis:
                           1         2         3         4         5
   1 1   Si 1S          0.37763
   2        2S          0.45187   1.03255
   3        3S         -0.02668  -0.18673   0.63319
   4        4S         -0.01636  -0.12251   0.59237   0.80848
   5        5S          0.00050   0.00424  -0.03898  -0.13546   0.56528
   6        6S          0.00026   0.00222  -0.01840  -0.05167   0.17810
   7        7PX         0.00000   0.00000   0.00000   0.00000   0.00000
   8        7PY         0.00000   0.00000   0.00000   0.00000   0.00000
   9        7PZ         0.00000   0.00000   0.00000   0.00000   0.00000
  10        8PX         0.00000   0.00000   0.00000   0.00000   0.00000
  11        8PY         0.00000   0.00000   0.00000   0.00000   0.00000
  12        8PZ         0.00000   0.00000   0.00000   0.00000   0.00000
  13        9PX         0.00000   0.00000   0.00000   0.00000   0.00000
  14        9PY         0.00000   0.00000   0.00000   0.00000   0.00000
  15        9PZ         0.00000   0.00000   0.00000   0.00000   0.00000
  16       10PX         0.00000   0.00000   0.00000   0.00000   0.00000
  17       10PY         0.00000   0.00000   0.00000   0.00000   0.00000
  18       10PZ         0.00000   0.00000   0.00000   0.00000   0.00000
  19       11PX         0.00000   0.00000   0.00000   0.00000   0.00000
  20       11PY         0.00000   0.00000   0.00000   0.00000   0.00000
  21       11PZ         0.00000   0.00000   0.00000   0.00000   0.00000
  22 2   O  1S         -0.00000  -0.00000   0.00000   0.00000  -0.00008
  23        2S          0.00000   0.00000  -0.00000   0.00000  -0.00012
  24        2PX         0.00000   0.00000  -0.00000  -0.00000   0.00245
  25        2PY         0.00000   0.00000  -0.00000  -0.00000   0.00003
  26        2PZ         0.00000   0.00000  -0.00000   0.00000   0.00000
  27        3S          0.00000   0.00000  -0.00000  -0.00003   0.00198
  28        3PX         0.00000   0.00000  -0.00005  -0.00065   0.01688
  29        3PY         0.00000   0.00000  -0.00000  -0.00001   0.00023
  30        3PZ         0.00000   0.00000  -0.00000   0.00000   0.00000
  31        4S          0.00000   0.00000   0.00004  -0.00009   0.00174
  32        4PX         0.00003   0.00024  -0.00211  -0.00750   0.03886
  33        4PY         0.00000   0.00001  -0.00010  -0.00032   0.00153
  34        4PZ         0.00000   0.00000  -0.00000  -0.00000   0.00000
  35 3   H  1S          0.00000   0.00000  -0.00002  -0.00023   0.00952
  36        2S          0.00002   0.00018  -0.00167  -0.00598   0.03954
  37        3S         -0.00000  -0.00001  -0.00003  -0.00087   0.01285
  38        4PX         0.00000   0.00000  -0.00001  -0.00007   0.00044
  39        4PY         0.00000   0.00000  -0.00003  -0.00014   0.00087
  40        4PZ         0.00000   0.00001  -0.00008  -0.00039   0.00236
  41 4   H  1S          0.00000   0.00000  -0.00002  -0.00026   0.01061
  42        2S          0.00002   0.00020  -0.00190  -0.00678   0.04636
  43        3S          0.00001   0.00009  -0.00087  -0.00354   0.02880
  44        4PX         0.00000   0.00000  -0.00001  -0.00007   0.00043
  45        4PY         0.00000   0.00001  -0.00013  -0.00065   0.00396
  46        4PZ        -0.00000  -0.00000   0.00000   0.00000  -0.00000
  47 5   H  1S          0.00000   0.00000  -0.00002  -0.00023   0.00952
  48        2S          0.00002   0.00018  -0.00167  -0.00598   0.03954
  49        3S         -0.00000  -0.00001  -0.00003  -0.00087   0.01285
  50        4PX         0.00000   0.00000  -0.00001  -0.00007   0.00044
  51        4PY         0.00000   0.00000  -0.00003  -0.00014   0.00087
  52        4PZ         0.00000   0.00001  -0.00008  -0.00039   0.00236
  53 6   H  1S         -0.00000  -0.00000   0.00000   0.00000  -0.00024
  54        2S         -0.00000  -0.00000   0.00001   0.00007  -0.00278
  55        3S         -0.00000  -0.00001   0.00008   0.00029  -0.00183
  56        4PX        -0.00000  -0.00000   0.00000   0.00000  -0.00007
  57        4PY        -0.00000  -0.00000   0.00000   0.00000  -0.00010
  58        4PZ        -0.00000  -0.00000   0.00000   0.00000  -0.00000
                           6         7         8         9        10
   6        6S          0.14564
   7        7PX         0.00000   0.33424
   8        7PY         0.00000   0.00000   0.33755
   9        7PZ         0.00000   0.00000   0.00000   0.33725
  10        8PX         0.00000   0.32111   0.00000   0.00000   0.97502
  11        8PY         0.00000   0.00000   0.32392   0.00000   0.00000
  12        8PZ         0.00000   0.00000   0.00000   0.32365   0.00000
  13        9PX         0.00000   0.00309   0.00000   0.00000   0.02468
  14        9PY         0.00000   0.00000   0.00245   0.00000   0.00000
  15        9PZ         0.00000   0.00000   0.00000   0.00251   0.00000
  16       10PX         0.00000  -0.00081   0.00000   0.00000  -0.00909
  17       10PY         0.00000   0.00000  -0.00145   0.00000   0.00000
  18       10PZ         0.00000   0.00000   0.00000  -0.00142   0.00000
  19       11PX         0.00000  -0.00002   0.00000   0.00000  -0.00034
  20       11PY         0.00000   0.00000  -0.00007   0.00000   0.00000
  21       11PZ         0.00000   0.00000   0.00000  -0.00006   0.00000
  22 2   O  1S          0.00081   0.00000   0.00000   0.00000   0.00000
  23        2S          0.00130  -0.00000  -0.00000  -0.00000   0.00000
  24        2PX        -0.00055  -0.00000  -0.00000  -0.00000  -0.00001
  25        2PY         0.00003  -0.00000  -0.00000  -0.00000  -0.00000
  26        2PZ        -0.00000  -0.00000  -0.00000  -0.00000  -0.00000
  27        3S         -0.02026  -0.00000  -0.00000  -0.00000  -0.00015
  28        3PX        -0.00358  -0.00002  -0.00000   0.00000  -0.00103
  29        3PY         0.00017  -0.00000  -0.00000  -0.00000  -0.00002
  30        3PZ        -0.00000  -0.00000  -0.00000  -0.00000  -0.00000
  31        4S         -0.05819  -0.00019  -0.00000   0.00000  -0.00272
  32        4PX        -0.01783  -0.00058  -0.00000  -0.00000  -0.00715
  33        4PY         0.00052  -0.00002  -0.00001  -0.00000  -0.00027
  34        4PZ        -0.00000  -0.00000  -0.00000  -0.00002  -0.00000
  35 3   H  1S          0.00842  -0.00000  -0.00000  -0.00000  -0.00003
  36        2S          0.03408  -0.00004  -0.00010  -0.00029  -0.00054
  37        3S          0.00923  -0.00001  -0.00004  -0.00013  -0.00016
  38        4PX         0.00012  -0.00000  -0.00000  -0.00000   0.00000
  39        4PY         0.00035  -0.00000  -0.00000  -0.00001  -0.00002
  40        4PZ         0.00098  -0.00000  -0.00001  -0.00002  -0.00007
  41 4   H  1S          0.00825  -0.00000  -0.00000   0.00000  -0.00004
  42        2S          0.03535  -0.00004  -0.00041  -0.00000  -0.00053
  43        3S          0.01461   0.00000  -0.00016   0.00000   0.00001
  44        4PX         0.00009  -0.00000  -0.00000  -0.00000   0.00000
  45        4PY         0.00149  -0.00000  -0.00004  -0.00000  -0.00009
  46        4PZ        -0.00000   0.00000  -0.00000  -0.00000   0.00000
  47 5   H  1S          0.00842  -0.00000  -0.00000  -0.00000  -0.00003
  48        2S          0.03408  -0.00004  -0.00010  -0.00029  -0.00054
  49        3S          0.00923  -0.00001  -0.00004  -0.00013  -0.00016
  50        4PX         0.00012  -0.00000  -0.00000  -0.00000   0.00000
  51        4PY         0.00035  -0.00000  -0.00000  -0.00001  -0.00002
  52        4PZ         0.00098  -0.00000  -0.00001  -0.00002  -0.00007
  53 6   H  1S          0.00033   0.00000  -0.00000  -0.00000   0.00000
  54        2S          0.00374   0.00000   0.00000   0.00000   0.00010
  55        3S          0.00378   0.00001   0.00000   0.00000   0.00018
  56        4PX         0.00016   0.00000  -0.00000   0.00000   0.00000
  57        4PY        -0.00003   0.00000   0.00000   0.00000   0.00000
  58        4PZ         0.00000   0.00000   0.00000  -0.00000   0.00000
                          11        12        13        14        15
  11        8PY         0.98232
  12        8PZ         0.00000   0.98159
  13        9PX         0.00000   0.00000   0.06155
  14        9PY         0.01982   0.00000   0.00000   0.07015
  15        9PZ         0.00000   0.02034   0.00000   0.00000   0.06855
  16       10PX         0.00000   0.00000   0.02686   0.00000   0.00000
  17       10PY        -0.01619   0.00000   0.00000   0.05994   0.00000
  18       10PZ         0.00000  -0.01586   0.00000   0.00000   0.05847
  19       11PX         0.00000   0.00000   0.00474   0.00000   0.00000
  20       11PY        -0.00093   0.00000   0.00000   0.00735   0.00000
  21       11PZ         0.00000  -0.00078   0.00000   0.00000   0.00611
  22 2   O  1S          0.00000   0.00000  -0.00009  -0.00000  -0.00000
  23        2S          0.00000   0.00000  -0.00014  -0.00000  -0.00000
  24        2PX        -0.00000  -0.00000   0.00230   0.00001   0.00000
  25        2PY        -0.00000  -0.00000   0.00003   0.00001   0.00000
  26        2PZ        -0.00000  -0.00000   0.00000   0.00000   0.00003
  27        3S         -0.00000  -0.00000   0.00452   0.00004   0.00000
  28        3PX        -0.00000  -0.00000   0.01766   0.00006   0.00000
  29        3PY        -0.00001  -0.00000   0.00028   0.00017   0.00000
  30        3PZ        -0.00000  -0.00002   0.00000   0.00000   0.00038
  31        4S         -0.00001   0.00000   0.02054  -0.00001  -0.00000
  32        4PX        -0.00000  -0.00000   0.03781   0.00017   0.00000
  33        4PY        -0.00012  -0.00000   0.00146   0.00004  -0.00000
  34        4PZ        -0.00000  -0.00029   0.00000   0.00000   0.00082
  35 3   H  1S         -0.00008  -0.00024   0.00082   0.00196   0.00558
  36        2S         -0.00135  -0.00385   0.00362   0.00894   0.02574
  37        3S         -0.00053  -0.00158   0.00091   0.00342   0.01026
  38        4PX        -0.00003  -0.00007   0.00000   0.00016   0.00050
  39        4PY        -0.00001  -0.00014   0.00015   0.00001   0.00100
  40        4PZ        -0.00015  -0.00029   0.00045   0.00101   0.00162
  41 4   H  1S         -0.00035   0.00000   0.00085   0.00790  -0.00000
  42        2S         -0.00546  -0.00000   0.00355   0.03595  -0.00000
  43        3S         -0.00196   0.00000  -0.00025   0.01247  -0.00000
  44        4PX        -0.00009  -0.00000  -0.00000   0.00062  -0.00000
  45        4PY        -0.00064  -0.00000   0.00057   0.00364  -0.00000
  46        4PZ        -0.00000  -0.00001  -0.00000  -0.00000   0.00015
  47 5   H  1S         -0.00008  -0.00024   0.00082   0.00196   0.00558
  48        2S         -0.00135  -0.00385   0.00362   0.00894   0.02574
  49        3S         -0.00053  -0.00158   0.00091   0.00342   0.01026
  50        4PX        -0.00003  -0.00007   0.00000   0.00016   0.00050
  51        4PY        -0.00001  -0.00014   0.00015   0.00001   0.00100
  52        4PZ        -0.00015  -0.00029   0.00045   0.00101   0.00162
  53 6   H  1S         -0.00000  -0.00000  -0.00005   0.00000  -0.00000
  54        2S          0.00000   0.00000  -0.00191  -0.00005  -0.00000
  55        3S          0.00002   0.00000  -0.00168  -0.00019  -0.00000
  56        4PX        -0.00000   0.00000  -0.00005   0.00000  -0.00000
  57        4PY         0.00000   0.00000  -0.00005   0.00000  -0.00000
  58        4PZ         0.00000  -0.00000  -0.00000  -0.00000   0.00000
                          16        17        18        19        20
  16       10PX         0.03302
  17       10PY         0.00000   0.11277
  18       10PZ         0.00000   0.00000   0.11234
  19       11PX         0.00742   0.00000   0.00000   0.00479
  20       11PY         0.00000   0.02760   0.00000   0.00000   0.02468
  21       11PZ         0.00000   0.00000   0.02663   0.00000   0.00000
  22 2   O  1S          0.00021  -0.00001   0.00000  -0.00014  -0.00003
  23        2S          0.00031  -0.00002   0.00000  -0.00025  -0.00005
  24        2PX         0.00304  -0.00005  -0.00000   0.00012  -0.00005
  25        2PY         0.00013   0.00066   0.00000  -0.00001   0.00093
  26        2PZ        -0.00000  -0.00000   0.00103  -0.00000   0.00000
  27        3S         -0.00531   0.00033  -0.00000   0.00359   0.00084
  28        3PX         0.01582  -0.00027  -0.00000   0.00064  -0.00031
  29        3PY         0.00073   0.00421   0.00000  -0.00003   0.00574
  30        3PZ        -0.00000  -0.00000   0.00648  -0.00000   0.00000
  31        4S          0.00702   0.00042  -0.00000   0.01414   0.00150
  32        4PX         0.02876  -0.00074  -0.00000   0.00075  -0.00102
  33        4PY         0.00252   0.01206  -0.00000   0.00001   0.02245
  34        4PZ        -0.00000  -0.00000   0.02002  -0.00000   0.00000
  35 3   H  1S          0.00176   0.00550   0.01530   0.00031   0.00078
  36        2S          0.00599   0.01960   0.05430   0.00106   0.00263
  37        3S          0.00249   0.00781   0.02289  -0.00006  -0.00097
  38        4PX        -0.00002   0.00022   0.00061   0.00001   0.00002
  39        4PY         0.00013  -0.00017   0.00110   0.00001  -0.00003
  40        4PZ         0.00041   0.00116   0.00092   0.00002   0.00003
  41 4   H  1S          0.00183   0.02194  -0.00000   0.00092   0.00389
  42        2S          0.00559   0.07967   0.00000   0.00392   0.01471
  43        3S         -0.00043   0.03049  -0.00000   0.00148   0.00269
  44        4PX        -0.00005   0.00074  -0.00000  -0.00007   0.00005
  45        4PY         0.00045   0.00286  -0.00000   0.00012  -0.00006
  46        4PZ        -0.00000  -0.00000   0.00033  -0.00000  -0.00000
  47 5   H  1S          0.00176   0.00550   0.01530   0.00031   0.00078
  48        2S          0.00599   0.01960   0.05430   0.00106   0.00263
  49        3S          0.00249   0.00781   0.02289  -0.00006  -0.00097
  50        4PX        -0.00002   0.00022   0.00061   0.00001   0.00002
  51        4PY         0.00013  -0.00017   0.00110   0.00001  -0.00003
  52        4PZ         0.00041   0.00116   0.00092   0.00002   0.00003
  53 6   H  1S         -0.00097   0.00018   0.00000  -0.00138   0.00044
  54        2S         -0.00606   0.00023  -0.00000  -0.00604   0.00067
  55        3S         -0.00273  -0.00043  -0.00000  -0.00294   0.00013
  56        4PX        -0.00013   0.00013  -0.00000  -0.00011   0.00015
  57        4PY        -0.00035   0.00005  -0.00000  -0.00008   0.00024
  58        4PZ         0.00000  -0.00000   0.00013  -0.00000   0.00000
                          21        22        23        24        25
  21       11PZ         0.02712
  22 2   O  1S          0.00000   0.63855
  23        2S          0.00000   0.51158   0.52015
  24        2PX        -0.00000   0.00000   0.00000   0.12718
  25        2PY         0.00000   0.00000   0.00000   0.00000   0.14334
  26        2PZ         0.00134   0.00000   0.00000   0.00000   0.00000
  27        3S         -0.00000  -0.04475  -0.08582   0.00000   0.00000
  28        3PX        -0.00000   0.00000   0.00000   0.11191   0.00000
  29        3PY         0.00000   0.00000   0.00000   0.00000   0.12205
  30        3PZ         0.00831   0.00000   0.00000   0.00000   0.00000
  31        4S         -0.00000  -0.02047  -0.03459   0.00000   0.00000
  32        4PX        -0.00000   0.00000   0.00000   0.03248   0.00000
  33        4PY         0.00000   0.00000   0.00000   0.00000   0.03903
  34        4PZ         0.03280   0.00000   0.00000   0.00000   0.00000
  35 3   H  1S          0.00158   0.00000  -0.00000  -0.00000  -0.00000
  36        2S          0.00338   0.00000   0.00000  -0.00001  -0.00000
  37        3S         -0.00407  -0.00006  -0.00009  -0.00014  -0.00011
  38        4PX         0.00003  -0.00000  -0.00000   0.00000   0.00000
  39        4PY        -0.00000   0.00000   0.00000  -0.00000  -0.00000
  40        4PZ        -0.00000   0.00000   0.00000  -0.00000  -0.00000
  41 4   H  1S         -0.00000   0.00000   0.00000  -0.00000  -0.00000
  42        2S         -0.00000   0.00000   0.00000  -0.00001  -0.00001
  43        3S         -0.00000   0.00003   0.00005   0.00017  -0.00024
  44        4PX        -0.00000  -0.00000  -0.00000   0.00000  -0.00000
  45        4PY        -0.00000   0.00000   0.00000  -0.00000  -0.00000
  46        4PZ         0.00000  -0.00000  -0.00000   0.00000  -0.00000
  47 5   H  1S          0.00158   0.00000  -0.00000  -0.00000  -0.00000
  48        2S          0.00338   0.00000   0.00000  -0.00001  -0.00000
  49        3S         -0.00407  -0.00006  -0.00009  -0.00014  -0.00011
  50        4PX         0.00003  -0.00000  -0.00000   0.00000   0.00000
  51        4PY        -0.00000   0.00000   0.00000  -0.00000  -0.00000
  52        4PZ        -0.00000   0.00000   0.00000  -0.00000  -0.00000
  53 6   H  1S         -0.00000  -0.00024  -0.00035   0.00242   0.00458
  54        2S         -0.00000  -0.00077  -0.00128   0.00545   0.00694
  55        3S         -0.00000   0.00006   0.00007   0.00043   0.00057
  56        4PX        -0.00000  -0.00012  -0.00018   0.00019   0.00244
  57        4PY        -0.00000  -0.00059  -0.00096   0.00264  -0.00007
  58        4PZ         0.00042  -0.00000  -0.00000   0.00000   0.00000
                          26        27        28        29        30
  26        2PZ         0.17353
  27        3S          0.00000   0.64840
  28        3PX         0.00000   0.00000   0.26330
  29        3PY         0.00000   0.00000   0.00000   0.27775
  30        3PZ         0.14857   0.00000   0.00000   0.00000   0.33964
  31        4S          0.00000   0.42625   0.00000   0.00000   0.00000
  32        4PX         0.00000   0.00000   0.14842   0.00000   0.00000
  33        4PY         0.00000   0.00000   0.00000   0.17253   0.00000
  34        4PZ         0.05374   0.00000   0.00000   0.00000   0.23818
  35 3   H  1S         -0.00000  -0.00000  -0.00000  -0.00000  -0.00000
  36        2S         -0.00001  -0.00002  -0.00015  -0.00005  -0.00014
  37        3S         -0.00027   0.00187  -0.00091  -0.00074  -0.00177
  38        4PX        -0.00000  -0.00000   0.00000   0.00000  -0.00000
  39        4PY        -0.00000  -0.00000  -0.00000  -0.00000  -0.00000
  40        4PZ        -0.00000  -0.00000  -0.00000  -0.00000  -0.00000
  41 4   H  1S         -0.00000  -0.00000  -0.00000  -0.00000  -0.00000
  42        2S          0.00000  -0.00014  -0.00015  -0.00017   0.00000
  43        3S         -0.00000  -0.00127   0.00114  -0.00153  -0.00000
  44        4PX         0.00000  -0.00000   0.00000  -0.00000   0.00000
  45        4PY        -0.00000  -0.00000  -0.00000  -0.00000  -0.00000
  46        4PZ        -0.00000   0.00000   0.00000  -0.00000  -0.00000
  47 5   H  1S         -0.00000  -0.00000  -0.00000  -0.00000  -0.00000
  48        2S         -0.00001  -0.00002  -0.00015  -0.00005  -0.00014
  49        3S         -0.00027   0.00187  -0.00091  -0.00074  -0.00177
  50        4PX        -0.00000  -0.00000   0.00000   0.00000  -0.00000
  51        4PY        -0.00000  -0.00000  -0.00000  -0.00000  -0.00000
  52        4PZ        -0.00000  -0.00000  -0.00000  -0.00000  -0.00000
  53 6   H  1S          0.00000   0.01304   0.01503   0.02780   0.00000
  54        2S          0.00000   0.02040   0.02703   0.03276   0.00000
  55        3S          0.00000  -0.00020   0.00255   0.00318   0.00000
  56        4PX         0.00000   0.00190  -0.00009   0.00802   0.00000
  57        4PY         0.00000   0.01138   0.00879  -0.00019   0.00000
  58        4PZ         0.00131   0.00000   0.00000   0.00000   0.00637
                          31        32        33        34        35
  31        4S          0.56183
  32        4PX         0.00000   0.22368
  33        4PY         0.00000   0.00000   0.29029
  34        4PZ         0.00000   0.00000   0.00000   0.42885
  35 3   H  1S         -0.00004  -0.00023  -0.00006  -0.00014   0.07153
  36        2S         -0.00058  -0.00308  -0.00103  -0.00300   0.10049
  37        3S          0.00555  -0.00496  -0.00381  -0.00957   0.02902
  38        4PX        -0.00000   0.00004   0.00001  -0.00003   0.00000
  39        4PY        -0.00001  -0.00004   0.00000  -0.00006   0.00000
  40        4PZ        -0.00001  -0.00013  -0.00005  -0.00006   0.00000
  41 4   H  1S         -0.00018  -0.00021  -0.00011  -0.00000  -0.00000
  42        2S         -0.00342  -0.00198  -0.00241   0.00000  -0.00009
  43        3S         -0.00657   0.00538  -0.00748  -0.00000  -0.00119
  44        4PX        -0.00002   0.00007  -0.00006   0.00000   0.00000
  45        4PY        -0.00015  -0.00009  -0.00009  -0.00000  -0.00000
  46        4PZ         0.00000   0.00000  -0.00000  -0.00002   0.00000
  47 5   H  1S         -0.00004  -0.00023  -0.00006  -0.00014  -0.00000
  48        2S         -0.00058  -0.00308  -0.00103  -0.00300  -0.00011
  49        3S          0.00555  -0.00496  -0.00381  -0.00957  -0.00152
  50        4PX        -0.00000   0.00004   0.00001  -0.00003  -0.00000
  51        4PY        -0.00001  -0.00004   0.00000  -0.00006  -0.00000
  52        4PZ        -0.00001  -0.00013  -0.00005  -0.00006  -0.00000
  53 6   H  1S          0.00109   0.01344   0.02957   0.00000  -0.00000
  54        2S         -0.02810   0.03659   0.04163   0.00000   0.00000
  55        3S         -0.01785   0.00565   0.00687   0.00000  -0.00002
  56        4PX        -0.00107  -0.00089   0.00468   0.00000  -0.00000
  57        4PY         0.00466   0.00495   0.00065   0.00000  -0.00000
  58        4PZ         0.00000   0.00000   0.00000   0.01055  -0.00000
                          36        37        38        39        40
  36        2S          0.28949
  37        3S          0.13226   0.11558
  38        4PX         0.00000   0.00000   0.00047
  39        4PY         0.00000   0.00000   0.00000   0.00100
  40        4PZ         0.00000   0.00000   0.00000   0.00000   0.00282
  41 4   H  1S         -0.00009  -0.00128  -0.00000   0.00000  -0.00000
  42        2S         -0.00224  -0.00910  -0.00000  -0.00000  -0.00007
  43        3S         -0.00805  -0.01406  -0.00000  -0.00008  -0.00022
  44        4PX         0.00000   0.00000  -0.00000   0.00000   0.00000
  45        4PY        -0.00010  -0.00045  -0.00000   0.00000  -0.00000
  46        4PZ         0.00003   0.00008   0.00000   0.00000   0.00000
  47 5   H  1S         -0.00011  -0.00152   0.00000   0.00000  -0.00000
  48        2S         -0.00283  -0.01099   0.00000   0.00000  -0.00010
  49        3S         -0.01099  -0.01740   0.00000   0.00000  -0.00043
  50        4PX        -0.00000  -0.00000  -0.00000   0.00000  -0.00000
  51        4PY        -0.00000  -0.00000   0.00000  -0.00000  -0.00000
  52        4PZ        -0.00010  -0.00043   0.00000   0.00000  -0.00000
  53 6   H  1S         -0.00000  -0.00016  -0.00000   0.00000  -0.00000
  54        2S         -0.00001  -0.00073  -0.00000   0.00000  -0.00000
  55        3S         -0.00019  -0.00114  -0.00001   0.00000  -0.00001
  56        4PX        -0.00000  -0.00010  -0.00000   0.00000  -0.00000
  57        4PY        -0.00000  -0.00000   0.00000   0.00000  -0.00000
  58        4PZ        -0.00000  -0.00008  -0.00000  -0.00000  -0.00000
                          41        42        43        44        45
  41 4   H  1S          0.07161
  42        2S          0.10033   0.28670
  43        3S          0.02437   0.10766   0.07610
  44        4PX         0.00000   0.00000   0.00000   0.00039
  45        4PY         0.00000   0.00000   0.00000   0.00000   0.00378
  46        4PZ         0.00000   0.00000   0.00000   0.00000   0.00000
  47 5   H  1S         -0.00000  -0.00009  -0.00119   0.00000  -0.00000
  48        2S         -0.00009  -0.00224  -0.00805   0.00000  -0.00010
  49        3S         -0.00128  -0.00910  -0.01406   0.00000  -0.00045
  50        4PX        -0.00000  -0.00000  -0.00000  -0.00000  -0.00000
  51        4PY         0.00000  -0.00000  -0.00008   0.00000   0.00000
  52        4PZ        -0.00000  -0.00007  -0.00022   0.00000  -0.00000
  53 6   H  1S          0.00000   0.00000   0.00012   0.00000   0.00000
  54        2S          0.00000   0.00005   0.00068   0.00000   0.00000
  55        3S          0.00007   0.00071   0.00132   0.00001   0.00003
  56        4PX         0.00000   0.00000   0.00006   0.00000   0.00000
  57        4PY         0.00000   0.00000  -0.00001  -0.00000   0.00000
  58        4PZ         0.00000   0.00000   0.00000  -0.00000   0.00000
                          46        47        48        49        50
  46        4PZ         0.00006
  47 5   H  1S          0.00000   0.07153
  48        2S          0.00003   0.10049   0.28949
  49        3S          0.00008   0.02902   0.13226   0.11558
  50        4PX         0.00000   0.00000   0.00000   0.00000   0.00047
  51        4PY         0.00000   0.00000   0.00000   0.00000   0.00000
  52        4PZ         0.00000   0.00000   0.00000   0.00000   0.00000
  53 6   H  1S         -0.00000  -0.00000  -0.00000  -0.00016  -0.00000
  54        2S         -0.00000   0.00000  -0.00001  -0.00073  -0.00000
  55        3S         -0.00000  -0.00002  -0.00019  -0.00114  -0.00001
  56        4PX        -0.00000  -0.00000  -0.00000  -0.00010  -0.00000
  57        4PY        -0.00000  -0.00000  -0.00000  -0.00000   0.00000
  58        4PZ        -0.00000  -0.00000  -0.00000  -0.00008  -0.00000
                          51        52        53        54        55
  51        4PY         0.00100
  52        4PZ         0.00000   0.00282
  53 6   H  1S          0.00000  -0.00000   0.08260
  54        2S          0.00000  -0.00000   0.07408   0.14231
  55        3S          0.00000  -0.00001   0.00983   0.02945   0.01054
  56        4PX         0.00000  -0.00000   0.00000   0.00000   0.00000
  57        4PY         0.00000  -0.00000   0.00000   0.00000   0.00000
  58        4PZ        -0.00000  -0.00000   0.00000   0.00000   0.00000
                          56        57        58
  56        4PX         0.00288
  57        4PY         0.00000   0.00426
  58        4PZ         0.00000   0.00000   0.00182
     Gross orbital populations:
                           1
   1 1   Si 1S          0.78732
   2        2S          1.18254
   3        3S          0.94603
   4        4S          1.03991
   5        5S          0.85348
   6        6S          0.33269
   7        7PX         0.65666
   8        7PY         0.66146
   9        7PZ         0.66102
  10        8PX         1.29803
  11        8PY         1.29600
  12        8PZ         1.29627
  13        9PX         0.21817
  14        9PY         0.25156
  15        9PZ         0.24676
  16       10PX         0.12928
  17       10PY         0.40337
  18       10PZ         0.39837
  19       11PX         0.03391
  20       11PY         0.11649
  21       11PZ         0.10372
  22 2   O  1S          1.08382
  23        2S          0.90953
  24        2PX         0.28982
  25        2PY         0.32021
  26        2PZ         0.37900
  27        3S          0.97846
  28        3PX         0.62096
  29        3PY         0.65209
  30        3PZ         0.74407
  31        4S          0.87541
  32        4PX         0.52037
  33        4PY         0.60497
  34        4PZ         0.75890
  35 3   H  1S          0.24856
  36        2S          0.67474
  37        3S          0.26587
  38        4PX         0.00237
  39        4PY         0.00385
  40        4PZ         0.00971
  41 4   H  1S          0.24864
  42        2S          0.67435
  43        3S          0.23623
  44        4PX         0.00201
  45        4PY         0.01388
  46        4PZ         0.00073
  47 5   H  1S          0.24856
  48        2S          0.67474
  49        3S          0.26587
  50        4PX         0.00237
  51        4PY         0.00385
  52        4PZ         0.00971
  53 6   H  1S          0.27100
  54        2S          0.37375
  55        3S          0.04526
  56        4PX         0.01771
  57        4PY         0.03517
  58        4PZ         0.02043
          Condensed to atoms (all electrons):
               1          2          3          4          5          6
     1  Si  11.730581   0.217445   0.310486   0.362741   0.310486  -0.018693
     2  O    0.217445   8.274684  -0.023906  -0.019466  -0.023906   0.312755
     3  H    0.310486  -0.023906   1.004422  -0.036917  -0.046523  -0.002464
     4  H    0.362741  -0.019466  -0.036917   0.903346  -0.036917   0.003047
     5  H    0.310486  -0.023906  -0.046523  -0.036917   1.004422  -0.002464
     6  H   -0.018693   0.312755  -0.002464   0.003047  -0.002464   0.471134
 Mulliken charges:
               1
     1  Si   1.086954
     2  O   -0.737605
     3  H   -0.205099
     4  H   -0.175835
     5  H   -0.205099
     6  H    0.236685
 Sum of Mulliken charges =  -0.00000
 Mulliken charges with hydrogens summed into heavy atoms:
               1
     1  Si   0.500920
     2  O   -0.500920

 Bonding Mulliken population analysis:
      Bonding Density Matrix:
                           1         2         3         4         5
   1 1   Si 1S          0.00000
   2        2S          0.00000   0.00000
   3        3S          0.00000   0.00000   0.00000
   4        4S          0.00000   0.00000   0.00000   0.00000
   5        5S          0.00000   0.00000   0.00000   0.00000   0.00000
   6        6S          0.00000   0.00000   0.00000   0.00000   0.00000
   7        7PX         0.00000   0.00000   0.00000   0.00000   0.00000
   8        7PY         0.00000   0.00000   0.00000   0.00000   0.00000
   9        7PZ         0.00000   0.00000   0.00000   0.00000   0.00000
  10        8PX         0.00000   0.00000   0.00000   0.00000   0.00000
  11        8PY         0.00000   0.00000   0.00000   0.00000   0.00000
  12        8PZ         0.00000   0.00000   0.00000   0.00000   0.00000
  13        9PX         0.00000   0.00000   0.00000   0.00000   0.00000
  14        9PY         0.00000   0.00000   0.00000   0.00000   0.00000
  15        9PZ         0.00000   0.00000   0.00000   0.00000   0.00000
  16       10PX         0.00000   0.00000   0.00000   0.00000   0.00000
  17       10PY         0.00000   0.00000   0.00000   0.00000   0.00000
  18       10PZ         0.00000   0.00000   0.00000   0.00000   0.00000
  19       11PX         0.00000   0.00000   0.00000   0.00000   0.00000
  20       11PY         0.00000   0.00000   0.00000   0.00000   0.00000
  21       11PZ         0.00000   0.00000   0.00000   0.00000   0.00000
  22 2   O  1S         -0.00036  -0.00095   0.00179   0.00326  -0.00654
  23        2S         -0.00057  -0.00150   0.00278   0.00519  -0.01006
  24        2PX         0.00415   0.01134  -0.02534  -0.04354   0.09187
  25        2PY         0.00091   0.00253  -0.00608  -0.00879   0.01563
  26        2PZ         0.00000   0.00000  -0.00000   0.00000   0.00000
  27        3S          0.00137   0.00352  -0.00599  -0.01191   0.02174
  28        3PX         0.00623   0.01704  -0.03814  -0.06513   0.13585
  29        3PY         0.00134   0.00373  -0.00895  -0.01312   0.02365
  30        3PZ         0.00000   0.00000  -0.00000   0.00000   0.00000
  31        4S          0.00010   0.00018   0.00141  -0.00148   0.00674
  32        4PX         0.00429   0.01183  -0.02618  -0.04452   0.09167
  33        4PY         0.00244   0.00678  -0.01579  -0.02442   0.04643
  34        4PZ         0.00000   0.00000  -0.00000  -0.00000   0.00000
  35 3   H  1S          0.00423   0.01159  -0.02654  -0.04257   0.07965
  36        2S          0.00718   0.01988  -0.04537  -0.07054   0.12285
  37        3S         -0.00007  -0.00035  -0.00038  -0.00527   0.02654
  38        4PX        -0.00035  -0.00099   0.00229   0.00348  -0.00570
  39        4PY        -0.00048  -0.00137   0.00321   0.00486  -0.00801
  40        4PZ        -0.00079  -0.00225   0.00526   0.00796  -0.01298
  41 4   H  1S          0.00448   0.01228  -0.02819  -0.04511   0.08679
  42        2S          0.00788   0.02184  -0.05012  -0.07789   0.14194
  43        3S          0.00154   0.00410  -0.01059  -0.02119   0.05905
  44        4PX        -0.00033  -0.00095   0.00220   0.00334  -0.00565
  45        4PY         0.00105   0.00299  -0.00703  -0.01068   0.01841
  46        4PZ         0.00000   0.00000  -0.00000  -0.00000   0.00000
  47 5   H  1S          0.00423   0.01159  -0.02654  -0.04257   0.07965
  48        2S          0.00718   0.01988  -0.04537  -0.07054   0.12285
  49        3S         -0.00007  -0.00035  -0.00038  -0.00527   0.02654
  50        4PX        -0.00035  -0.00099   0.00229   0.00348  -0.00570
  51        4PY        -0.00048  -0.00137   0.00321   0.00486  -0.00801
  52        4PZ         0.00079   0.00225  -0.00526  -0.00796   0.01298
  53 6   H  1S         -0.00108  -0.00293   0.00650   0.01200  -0.02764
  54        2S         -0.00208  -0.00570   0.01265   0.02284  -0.05060
  55        3S         -0.00066  -0.00179   0.00360   0.00569  -0.00934
  56        4PX        -0.00017  -0.00052   0.00113   0.00163  -0.00209
  57        4PY         0.00043   0.00117  -0.00270  -0.00484   0.01126
  58        4PZ         0.00000   0.00000  -0.00000  -0.00000   0.00000
                           6         7         8         9        10
   6        6S          0.00000
   7        7PX         0.00000   0.00000
   8        7PY         0.00000   0.00000   0.00000
   9        7PZ         0.00000   0.00000   0.00000   0.00000
  10        8PX         0.00000   0.00000   0.00000   0.00000   0.00000
  11        8PY         0.00000   0.00000   0.00000   0.00000   0.00000
  12        8PZ         0.00000   0.00000   0.00000   0.00000   0.00000
  13        9PX         0.00000   0.00000   0.00000   0.00000   0.00000
  14        9PY         0.00000   0.00000   0.00000   0.00000   0.00000
  15        9PZ         0.00000   0.00000   0.00000   0.00000   0.00000
  16       10PX         0.00000   0.00000   0.00000   0.00000   0.00000
  17       10PY         0.00000   0.00000   0.00000   0.00000   0.00000
  18       10PZ         0.00000   0.00000   0.00000   0.00000   0.00000
  19       11PX         0.00000   0.00000   0.00000   0.00000   0.00000
  20       11PY         0.00000   0.00000   0.00000   0.00000   0.00000
  21       11PZ         0.00000   0.00000   0.00000   0.00000   0.00000
  22 2   O  1S          0.02778  -0.00472  -0.00059  -0.00000  -0.00892
  23        2S          0.04222  -0.00758  -0.00096  -0.00000  -0.01429
  24        2PX        -0.02266   0.02695   0.00019   0.00000   0.04868
  25        2PY         0.01679   0.00549  -0.00330   0.00000   0.00930
  26        2PZ        -0.00000   0.00000   0.00000  -0.00578   0.00000
  27        3S         -0.11191   0.01993   0.00296   0.00000   0.03764
  28        3PX        -0.03397   0.03935   0.00060  -0.00000   0.07109
  29        3PY         0.02065   0.00895  -0.00526   0.00000   0.01530
  30        3PZ        -0.00000   0.00000   0.00000  -0.00864   0.00000
  31        4S         -0.14427   0.03245   0.00093  -0.00000   0.06015
  32        4PX        -0.05004   0.03877   0.00011   0.00000   0.06994
  33        4PY         0.01874   0.01536  -0.00243   0.00000   0.02683
  34        4PZ        -0.00000   0.00000   0.00000  -0.00574   0.00000
  35 3   H  1S          0.04728  -0.00703  -0.01191  -0.02006  -0.01237
  36        2S          0.07926  -0.01333  -0.02382  -0.04050  -0.02355
  37        3S          0.01358  -0.00562  -0.01323  -0.02347  -0.00976
  38        4PX        -0.00244   0.00017   0.00105   0.00181   0.00028
  39        4PY        -0.00513   0.00087   0.00089   0.00252   0.00153
  40        4PZ        -0.00859   0.00159   0.00258   0.00375   0.00280
  41 4   H  1S          0.04587  -0.00714   0.02376   0.00000  -0.01257
  42        2S          0.08159  -0.01297   0.04826  -0.00000  -0.02300
  43        3S          0.02139   0.00033   0.02489   0.00000   0.00070
  44        4PX        -0.00200   0.00023  -0.00191   0.00000   0.00037
  45        4PY         0.01124  -0.00171   0.00541  -0.00000  -0.00304
  46        4PZ         0.00000  -0.00000  -0.00000  -0.00054  -0.00000
  47 5   H  1S          0.04728  -0.00703  -0.01191   0.02006  -0.01237
  48        2S          0.07926  -0.01333  -0.02382   0.04050  -0.02355
  49        3S          0.01358  -0.00562  -0.01323   0.02347  -0.00976
  50        4PX        -0.00244   0.00017   0.00105  -0.00181   0.00028
  51        4PY        -0.00513   0.00087   0.00089  -0.00252   0.00153
  52        4PZ         0.00859  -0.00159  -0.00258   0.00375  -0.00280
  53 6   H  1S          0.00550  -0.00644  -0.00078  -0.00000  -0.01176
  54        2S          0.02142  -0.01614   0.00056   0.00000  -0.02933
  55        3S          0.01019  -0.00428   0.00197   0.00000  -0.00787
  56        4PX         0.00212  -0.00076  -0.00023   0.00000  -0.00142
  57        4PY         0.00129   0.00291  -0.00052  -0.00000   0.00519
  58        4PZ        -0.00000   0.00000  -0.00000  -0.00062   0.00000
                          11        12        13        14        15
  11        8PY         0.00000
  12        8PZ         0.00000   0.00000
  13        9PX         0.00000   0.00000   0.00000
  14        9PY         0.00000   0.00000   0.00000   0.00000
  15        9PZ         0.00000   0.00000   0.00000   0.00000   0.00000
  16       10PX         0.00000   0.00000   0.00000   0.00000   0.00000
  17       10PY         0.00000   0.00000   0.00000   0.00000   0.00000
  18       10PZ         0.00000   0.00000   0.00000   0.00000   0.00000
  19       11PX         0.00000   0.00000   0.00000   0.00000   0.00000
  20       11PY         0.00000   0.00000   0.00000   0.00000   0.00000
  21       11PZ         0.00000   0.00000   0.00000   0.00000   0.00000
  22 2   O  1S         -0.00109  -0.00000   0.01213   0.00110   0.00000
  23        2S         -0.00178  -0.00000   0.01938   0.00181   0.00000
  24        2PX         0.00053   0.00000  -0.07171  -0.00235  -0.00000
  25        2PY        -0.00602   0.00000  -0.01106   0.00338  -0.00000
  26        2PZ         0.00000  -0.01040  -0.00000  -0.00000   0.00832
  27        3S          0.00554   0.00000  -0.05028  -0.00573  -0.00000
  28        3PX         0.00134   0.00000  -0.10410  -0.00389  -0.00000
  29        3PY        -0.00951   0.00000  -0.01840   0.00618  -0.00000
  30        3PZ         0.00000  -0.01551  -0.00000  -0.00000   0.01299
  31        4S          0.00216  -0.00000  -0.08698   0.00064   0.00000
  32        4PX         0.00044   0.00000  -0.10217  -0.00435  -0.00000
  33        4PY        -0.00454   0.00000  -0.03647   0.00032   0.00000
  34        4PZ         0.00000  -0.01051  -0.00000  -0.00000   0.00567
  35 3   H  1S         -0.02078  -0.03499   0.01720   0.02892   0.04896
  36        2S         -0.04157  -0.07059   0.03338   0.05817   0.09975
  37        3S         -0.02300  -0.04080   0.01193   0.03176   0.05676
  38        4PX         0.00182   0.00316   0.00008  -0.00238  -0.00430
  39        4PY         0.00155   0.00438  -0.00209  -0.00172  -0.00605
  40        4PZ         0.00449   0.00652  -0.00390  -0.00613  -0.00866
  41 4   H  1S          0.04141   0.00000   0.01737  -0.05765  -0.00000
  42        2S          0.08408  -0.00000   0.03270  -0.11787  -0.00000
  43        3S          0.04333   0.00000  -0.00333  -0.05905  -0.00000
  44        4PX        -0.00332   0.00000  -0.00004   0.00453   0.00000
  45        4PY         0.00941  -0.00000   0.00422  -0.01253  -0.00000
  46        4PZ        -0.00000  -0.00095   0.00000  -0.00000   0.00166
  47 5   H  1S         -0.02078   0.03499   0.01720   0.02892  -0.04896
  48        2S         -0.04157   0.07059   0.03338   0.05817  -0.09975
  49        3S         -0.02300   0.04080   0.01193   0.03176  -0.05676
  50        4PX         0.00182  -0.00316   0.00008  -0.00238   0.00430
  51        4PY         0.00155  -0.00438  -0.00209  -0.00172   0.00605
  52        4PZ        -0.00449   0.00652   0.00390   0.00613  -0.00866
  53 6   H  1S         -0.00156  -0.00000   0.01970   0.00004  -0.00000
  54        2S          0.00070   0.00000   0.04436  -0.00405  -0.00000
  55        3S          0.00336   0.00000   0.01388  -0.00566  -0.00000
  56        4PX        -0.00044   0.00000   0.00228   0.00019  -0.00000
  57        4PY        -0.00089  -0.00000  -0.00783   0.00121   0.00000
  58        4PZ        -0.00000  -0.00112  -0.00000   0.00000   0.00074
                          16        17        18        19        20
  16       10PX         0.00000
  17       10PY         0.00000   0.00000
  18       10PZ         0.00000   0.00000   0.00000
  19       11PX         0.00000   0.00000   0.00000   0.00000
  20       11PY         0.00000   0.00000   0.00000   0.00000   0.00000
  21       11PZ         0.00000   0.00000   0.00000   0.00000   0.00000
  22 2   O  1S         -0.00403   0.00268  -0.00000   0.00292   0.00691
  23        2S         -0.00575   0.00438  -0.00000   0.00471   0.01164
  24        2PX        -0.05166   0.00848   0.00000  -0.01658   0.02406
  25        2PY        -0.02056   0.03067  -0.00000   0.00324   0.04401
  26        2PZ         0.00000   0.00000   0.04717   0.00000  -0.00000
  27        3S          0.01798  -0.01452   0.00000  -0.01247  -0.03765
  28        3PX        -0.07347   0.01120   0.00000  -0.02403   0.03334
  29        3PY        -0.03014   0.04486  -0.00000   0.00364   0.06203
  30        3PZ         0.00000   0.00000   0.06771   0.00000  -0.00000
  31        4S         -0.01382  -0.01063   0.00000  -0.02568  -0.03511
  32        4PX        -0.07326   0.01353   0.00000  -0.02331   0.03575
  33        4PY        -0.04611   0.03945   0.00000  -0.00048   0.06731
  34        4PZ         0.00000   0.00000   0.06457   0.00000  -0.00000
  35 3   H  1S          0.01641   0.03630   0.06009   0.00387   0.00694
  36        2S          0.03075   0.07102   0.11718   0.00624   0.01090
  37        3S          0.01533   0.03390   0.05915  -0.00029  -0.00326
  38        4PX        -0.00015  -0.00328  -0.00536   0.00006  -0.00113
  39        4PY        -0.00189  -0.00214  -0.00681  -0.00059  -0.00030
  40        4PZ        -0.00363  -0.00722  -0.00982  -0.00070  -0.00070
  41 4   H  1S          0.01718  -0.07318  -0.00000   0.01180  -0.01778
  42        2S          0.02893  -0.14664   0.00000   0.02334  -0.03116
  43        3S         -0.00270  -0.06758  -0.00000   0.00717  -0.00465
  44        4PX        -0.00038   0.00562   0.00000  -0.00056   0.00113
  45        4PY         0.00341  -0.01519  -0.00000   0.00287  -0.00255
  46        4PZ         0.00000  -0.00000   0.00184   0.00000  -0.00000
  47 5   H  1S          0.01641   0.03630  -0.06009   0.00387   0.00694
  48        2S          0.03075   0.07102  -0.11718   0.00624   0.01090
  49        3S          0.01533   0.03390  -0.05915  -0.00029  -0.00326
  50        4PX        -0.00015  -0.00328   0.00536   0.00006  -0.00113
  51        4PY        -0.00189  -0.00214   0.00681  -0.00059  -0.00030
  52        4PZ         0.00363   0.00722  -0.00982   0.00070   0.00070
  53 6   H  1S          0.01464   0.00985   0.00000   0.00827   0.00955
  54        2S          0.02948   0.00402  -0.00000   0.01525   0.00611
  55        3S          0.00834  -0.00470  -0.00000   0.00505   0.00083
  56        4PX         0.00103   0.00291  -0.00000   0.00135   0.00359
  57        4PY        -0.00794   0.00288   0.00000  -0.00205   0.00458
  58        4PZ         0.00000   0.00000   0.00470  -0.00000  -0.00000
                          21        22        23        24        25
  21       11PZ         0.00000
  22 2   O  1S         -0.00000   0.00000
  23        2S         -0.00000   0.00000   0.00000
  24        2PX         0.00000   0.00000   0.00000   0.00000
  25        2PY        -0.00000   0.00000   0.00000   0.00000   0.00000
  26        2PZ         0.06341   0.00000   0.00000   0.00000   0.00000
  27        3S          0.00000   0.00000   0.00000   0.00000   0.00000
  28        3PX         0.00000   0.00000   0.00000   0.00000   0.00000
  29        3PY        -0.00000   0.00000   0.00000   0.00000   0.00000
  30        3PZ         0.08905   0.00000   0.00000   0.00000   0.00000
  31        4S          0.00000   0.00000   0.00000   0.00000   0.00000
  32        4PX         0.00000   0.00000   0.00000   0.00000   0.00000
  33        4PY        -0.00000   0.00000   0.00000   0.00000   0.00000
  34        4PZ         0.09769   0.00000   0.00000   0.00000   0.00000
  35 3   H  1S          0.00840   0.00124   0.00191  -0.01061  -0.00737
  36        2S          0.00833   0.00200   0.00340  -0.02582  -0.02264
  37        3S         -0.00818  -0.00873  -0.01384  -0.01779  -0.03788
  38        4PX        -0.00086   0.00013   0.00007  -0.00112  -0.00032
  39        4PY         0.00001  -0.00023  -0.00041   0.00146   0.00060
  40        4PZ        -0.00005  -0.00022  -0.00037   0.00318   0.00378
  41 4   H  1S         -0.00000   0.00332   0.00533  -0.00656   0.00744
  42        2S         -0.00000   0.00906   0.01485  -0.01523   0.03465
  43        3S         -0.00000   0.00338   0.00634   0.01758   0.04375
  44        4PX         0.00000   0.00014   0.00009  -0.00107  -0.00082
  45        4PY        -0.00000   0.00153   0.00255  -0.00184   0.00622
  46        4PZ         0.00000   0.00000   0.00000  -0.00000  -0.00000
  47 5   H  1S         -0.00840   0.00124   0.00191  -0.01061  -0.00737
  48        2S         -0.00833   0.00200   0.00340  -0.02582  -0.02264
  49        3S          0.00818  -0.00873  -0.01384  -0.01779  -0.03788
  50        4PX         0.00086   0.00013   0.00007  -0.00112  -0.00032
  51        4PY        -0.00001  -0.00023  -0.00041   0.00146   0.00060
  52        4PZ        -0.00005   0.00022   0.00037  -0.00318  -0.00378
  53 6   H  1S         -0.00000  -0.01675  -0.02659  -0.05305   0.07475
  54        2S         -0.00000  -0.01143  -0.01781  -0.09169   0.08676
  55        3S         -0.00000   0.00101   0.00116  -0.02416   0.02397
  56        4PX        -0.00000  -0.00201  -0.00286  -0.00638   0.01745
  57        4PY         0.00000   0.00753   0.01145   0.01892   0.00061
  58        4PZ         0.00646   0.00000   0.00000   0.00000  -0.00000
                          26        27        28        29        30
  26        2PZ         0.00000
  27        3S          0.00000   0.00000
  28        3PX         0.00000   0.00000   0.00000
  29        3PY         0.00000   0.00000   0.00000   0.00000
  30        3PZ         0.00000   0.00000   0.00000   0.00000   0.00000
  31        4S          0.00000   0.00000   0.00000   0.00000   0.00000
  32        4PX         0.00000   0.00000   0.00000   0.00000   0.00000
  33        4PY         0.00000   0.00000   0.00000   0.00000   0.00000
  34        4PZ         0.00000   0.00000   0.00000   0.00000   0.00000
  35 3   H  1S         -0.01146  -0.00451  -0.01496  -0.01009  -0.01493
  36        2S         -0.04819  -0.00855  -0.03668  -0.03123  -0.06515
  37        3S         -0.06408   0.04078  -0.02432  -0.05193  -0.08832
  38        4PX         0.00067   0.00034  -0.00162  -0.00053   0.00084
  39        4PY         0.00438   0.00122   0.00209   0.00087   0.00599
  40        4PZ         0.00612   0.00087   0.00451   0.00524   0.00837
  41 4   H  1S         -0.00000  -0.01448  -0.00898   0.00825  -0.00000
  42        2S          0.00000  -0.04211  -0.02166   0.04376   0.00000
  43        3S         -0.00000  -0.02258   0.02504   0.05947  -0.00000
  44        4PX        -0.00000   0.00019  -0.00158  -0.00104  -0.00000
  45        4PY        -0.00000  -0.00746  -0.00269   0.00812  -0.00000
  46        4PZ        -0.00118  -0.00000  -0.00000  -0.00000  -0.00161
  47 5   H  1S          0.01146  -0.00451  -0.01496  -0.01009   0.01493
  48        2S          0.04819  -0.00855  -0.03668  -0.03123   0.06515
  49        3S          0.06408   0.04078  -0.02432  -0.05193   0.08832
  50        4PX        -0.00067   0.00034  -0.00162  -0.00053  -0.00084
  51        4PY        -0.00438   0.00122   0.00209   0.00087  -0.00599
  52        4PZ         0.00612  -0.00087  -0.00451  -0.00524   0.00837
  53 6   H  1S          0.00000   0.07771  -0.07532   0.10356   0.00000
  54        2S          0.00000   0.05415  -0.13165   0.11865   0.00000
  55        3S          0.00000  -0.00057  -0.03499   0.03246   0.00000
  56        4PX         0.00000   0.00720  -0.00918   0.02420   0.00000
  57        4PY        -0.00000  -0.03204   0.02652   0.00098  -0.00000
  58        4PZ         0.01776  -0.00000   0.00000  -0.00000   0.02484
                          31        32        33        34        35
  31        4S          0.00000
  32        4PX         0.00000   0.00000
  33        4PY         0.00000   0.00000   0.00000
  34        4PZ         0.00000   0.00000   0.00000   0.00000
  35 3   H  1S         -0.01337  -0.02171  -0.01557  -0.02403   0.00000
  36        2S         -0.02167  -0.04879  -0.04296  -0.08813   0.00000
  37        3S          0.04105  -0.03017  -0.06083  -0.10795   0.00000
  38        4PX         0.00005  -0.00111  -0.00064   0.00158   0.00000
  39        4PY         0.00249   0.00272   0.00140   0.00764   0.00000
  40        4PZ         0.00197   0.00603   0.00654   0.01071   0.00000
  41 4   H  1S         -0.03779  -0.01250   0.01122  -0.00000  -0.00993
  42        2S         -0.09353  -0.02294   0.04914   0.00000  -0.02735
  43        3S         -0.04129   0.02796   0.06850  -0.00000  -0.02293
  44        4PX         0.00106  -0.00132  -0.00169  -0.00000   0.00134
  45        4PY        -0.01416  -0.00269   0.00866  -0.00000  -0.00238
  46        4PZ        -0.00000  -0.00000  -0.00000  -0.00206   0.00146
  47 5   H  1S         -0.01337  -0.02171  -0.01557   0.02403  -0.01044
  48        2S         -0.02167  -0.04879  -0.04296   0.08813  -0.02994
  49        3S          0.04105  -0.03017  -0.06083   0.10795  -0.02823
  50        4PX         0.00005  -0.00111  -0.00064  -0.00158   0.00166
  51        4PY         0.00249   0.00272   0.00140  -0.00764   0.00276
  52        4PZ        -0.00197  -0.00603  -0.00654   0.01071  -0.00159
  53 6   H  1S          0.00347  -0.04721   0.07723   0.00000  -0.00085
  54        2S         -0.04551  -0.09663   0.08175   0.00000   0.00053
  55        3S         -0.02641  -0.02664   0.02408   0.00000  -0.00108
  56        4PX        -0.00518  -0.00425   0.02063   0.00000  -0.00033
  57        4PY        -0.01674   0.02179   0.00886  -0.00000  -0.00062
  58        4PZ        -0.00000   0.00000  -0.00000   0.02790  -0.00125
                          36        37        38        39        40
  36        2S          0.00000
  37        3S          0.00000   0.00000
  38        4PX         0.00000   0.00000   0.00000
  39        4PY         0.00000   0.00000   0.00000   0.00000
  40        4PZ         0.00000   0.00000   0.00000   0.00000   0.00000
  41 4   H  1S         -0.02637  -0.02479   0.00134  -0.00021   0.00276
  42        2S         -0.06665  -0.05875   0.00310   0.00025   0.00720
  43        3S         -0.05193  -0.04102   0.00165   0.00114   0.00592
  44        4PX         0.00309   0.00230  -0.00011  -0.00005  -0.00033
  45        4PY        -0.00638  -0.00675   0.00030  -0.00004   0.00071
  46        4PZ         0.00317   0.00210  -0.00013  -0.00020  -0.00029
  47 5   H  1S         -0.02994  -0.02823   0.00166   0.00276   0.00159
  48        2S         -0.07912  -0.06879   0.00400   0.00698   0.00521
  49        3S         -0.06879  -0.04975   0.00309   0.00592   0.00547
  50        4PX         0.00400   0.00309  -0.00016  -0.00032  -0.00030
  51        4PY         0.00698   0.00592  -0.00032  -0.00051  -0.00056
  52        4PZ        -0.00521  -0.00547   0.00030   0.00056   0.00026
  53 6   H  1S         -0.00452  -0.01000   0.00044  -0.00012   0.00112
  54        2S         -0.00156  -0.01221   0.00090  -0.00054   0.00080
  55        3S         -0.00319  -0.00621   0.00037  -0.00013   0.00050
  56        4PX        -0.00151  -0.00326   0.00003  -0.00000   0.00032
  57        4PY        -0.00168  -0.00285  -0.00021   0.00011   0.00021
  58        4PZ        -0.00510  -0.00665   0.00008   0.00046   0.00064
                          41        42        43        44        45
  41 4   H  1S          0.00000
  42        2S          0.00000   0.00000
  43        3S          0.00000   0.00000   0.00000
  44        4PX         0.00000   0.00000   0.00000   0.00000
  45        4PY         0.00000   0.00000   0.00000   0.00000   0.00000
  46        4PZ         0.00000   0.00000   0.00000   0.00000   0.00000
  47 5   H  1S         -0.00993  -0.02735  -0.02293   0.00134  -0.00238
  48        2S         -0.02637  -0.06665  -0.05193   0.00309  -0.00638
  49        3S         -0.02479  -0.05875  -0.04102   0.00230  -0.00675
  50        4PX         0.00134   0.00310   0.00165  -0.00011   0.00030
  51        4PY        -0.00021   0.00025   0.00114  -0.00005  -0.00004
  52        4PZ        -0.00276  -0.00720  -0.00592   0.00033  -0.00071
  53 6   H  1S          0.00811   0.02742   0.01784  -0.00017   0.00416
  54        2S          0.01760   0.04962   0.02334  -0.00036   0.00703
  55        3S          0.01022   0.02452   0.01159  -0.00048   0.00318
  56        4PX         0.00165   0.00579   0.00475  -0.00007   0.00092
  57        4PY        -0.00183  -0.00390   0.00113  -0.00004  -0.00038
  58        4PZ        -0.00000  -0.00000  -0.00000  -0.00000  -0.00000
                          46        47        48        49        50
  46        4PZ         0.00000
  47 5   H  1S         -0.00146   0.00000
  48        2S         -0.00317   0.00000   0.00000
  49        3S         -0.00210   0.00000   0.00000   0.00000
  50        4PX         0.00013   0.00000   0.00000   0.00000   0.00000
  51        4PY         0.00020   0.00000   0.00000   0.00000   0.00000
  52        4PZ        -0.00029   0.00000   0.00000   0.00000   0.00000
  53 6   H  1S         -0.00000  -0.00085  -0.00452  -0.01000   0.00044
  54        2S         -0.00000   0.00053  -0.00156  -0.01221   0.00090
  55        3S         -0.00000  -0.00108  -0.00319  -0.00621   0.00037
  56        4PX        -0.00000  -0.00033  -0.00151  -0.00326   0.00003
  57        4PY         0.00000  -0.00062  -0.00168  -0.00285  -0.00021
  58        4PZ        -0.00012   0.00125   0.00510   0.00665  -0.00008
                          51        52        53        54        55
  51        4PY         0.00000
  52        4PZ         0.00000   0.00000
  53 6   H  1S         -0.00012  -0.00112   0.00000
  54        2S         -0.00054  -0.00080   0.00000   0.00000
  55        3S         -0.00013  -0.00050   0.00000   0.00000   0.00000
  56        4PX        -0.00000  -0.00032   0.00000   0.00000   0.00000
  57        4PY         0.00011  -0.00021   0.00000   0.00000   0.00000
  58        4PZ        -0.00046   0.00064   0.00000   0.00000   0.00000
                          56        57        58
  56        4PX         0.00000
  57        4PY         0.00000   0.00000
  58        4PZ         0.00000   0.00000   0.00000
    Full Bonding Mulliken population analysis:
                           1         2         3         4         5
   1 1   Si 1S          0.00000
   2        2S          0.00000   0.00000
   3        3S          0.00000   0.00000   0.00000
   4        4S          0.00000   0.00000   0.00000   0.00000
   5        5S          0.00000   0.00000   0.00000   0.00000   0.00000
   6        6S          0.00000   0.00000   0.00000   0.00000   0.00000
   7        7PX         0.00000   0.00000   0.00000   0.00000   0.00000
   8        7PY         0.00000   0.00000   0.00000   0.00000   0.00000
   9        7PZ         0.00000   0.00000   0.00000   0.00000   0.00000
  10        8PX         0.00000   0.00000   0.00000   0.00000   0.00000
  11        8PY         0.00000   0.00000   0.00000   0.00000   0.00000
  12        8PZ         0.00000   0.00000   0.00000   0.00000   0.00000
  13        9PX         0.00000   0.00000   0.00000   0.00000   0.00000
  14        9PY         0.00000   0.00000   0.00000   0.00000   0.00000
  15        9PZ         0.00000   0.00000   0.00000   0.00000   0.00000
  16       10PX         0.00000   0.00000   0.00000   0.00000   0.00000
  17       10PY         0.00000   0.00000   0.00000   0.00000   0.00000
  18       10PZ         0.00000   0.00000   0.00000   0.00000   0.00000
  19       11PX         0.00000   0.00000   0.00000   0.00000   0.00000
  20       11PY         0.00000   0.00000   0.00000   0.00000   0.00000
  21       11PZ         0.00000   0.00000   0.00000   0.00000   0.00000
  22 2   O  1S         -0.00000  -0.00000   0.00000   0.00000  -0.00008
  23        2S          0.00000   0.00000  -0.00000   0.00000  -0.00012
  24        2PX         0.00000   0.00000  -0.00000  -0.00000   0.00245
  25        2PY         0.00000   0.00000  -0.00000  -0.00000   0.00003
  26        2PZ         0.00000   0.00000  -0.00000   0.00000   0.00000
  27        3S          0.00000   0.00000  -0.00000  -0.00003   0.00198
  28        3PX         0.00000   0.00000  -0.00005  -0.00065   0.01688
  29        3PY         0.00000   0.00000  -0.00000  -0.00001   0.00023
  30        3PZ         0.00000   0.00000  -0.00000   0.00000   0.00000
  31        4S          0.00000   0.00000   0.00004  -0.00009   0.00174
  32        4PX         0.00003   0.00024  -0.00211  -0.00750   0.03886
  33        4PY         0.00000   0.00001  -0.00010  -0.00032   0.00153
  34        4PZ         0.00000   0.00000  -0.00000  -0.00000   0.00000
  35 3   H  1S          0.00000   0.00000  -0.00002  -0.00023   0.00952
  36        2S          0.00002   0.00018  -0.00167  -0.00598   0.03954
  37        3S         -0.00000  -0.00001  -0.00003  -0.00087   0.01285
  38        4PX         0.00000   0.00000  -0.00001  -0.00007   0.00044
  39        4PY         0.00000   0.00000  -0.00003  -0.00014   0.00087
  40        4PZ         0.00000   0.00001  -0.00008  -0.00039   0.00236
  41 4   H  1S          0.00000   0.00000  -0.00002  -0.00026   0.01061
  42        2S          0.00002   0.00020  -0.00190  -0.00678   0.04636
  43        3S          0.00001   0.00009  -0.00087  -0.00354   0.02880
  44        4PX         0.00000   0.00000  -0.00001  -0.00007   0.00043
  45        4PY         0.00000   0.00001  -0.00013  -0.00065   0.00396
  46        4PZ        -0.00000  -0.00000   0.00000   0.00000  -0.00000
  47 5   H  1S          0.00000   0.00000  -0.00002  -0.00023   0.00952
  48        2S          0.00002   0.00018  -0.00167  -0.00598   0.03954
  49        3S         -0.00000  -0.00001  -0.00003  -0.00087   0.01285
  50        4PX         0.00000   0.00000  -0.00001  -0.00007   0.00044
  51        4PY         0.00000   0.00000  -0.00003  -0.00014   0.00087
  52        4PZ         0.00000   0.00001  -0.00008  -0.00039   0.00236
  53 6   H  1S         -0.00000  -0.00000   0.00000   0.00000  -0.00024
  54        2S         -0.00000  -0.00000   0.00001   0.00007  -0.00278
  55        3S         -0.00000  -0.00001   0.00008   0.00029  -0.00183
  56        4PX        -0.00000  -0.00000   0.00000   0.00000  -0.00007
  57        4PY        -0.00000  -0.00000   0.00000   0.00000  -0.00010
  58        4PZ        -0.00000  -0.00000   0.00000   0.00000  -0.00000
                           6         7         8         9        10
   6        6S          0.00000
   7        7PX         0.00000   0.00000
   8        7PY         0.00000   0.00000   0.00000
   9        7PZ         0.00000   0.00000   0.00000   0.00000
  10        8PX         0.00000   0.00000   0.00000   0.00000   0.00000
  11        8PY         0.00000   0.00000   0.00000   0.00000   0.00000
  12        8PZ         0.00000   0.00000   0.00000   0.00000   0.00000
  13        9PX         0.00000   0.00000   0.00000   0.00000   0.00000
  14        9PY         0.00000   0.00000   0.00000   0.00000   0.00000
  15        9PZ         0.00000   0.00000   0.00000   0.00000   0.00000
  16       10PX         0.00000   0.00000   0.00000   0.00000   0.00000
  17       10PY         0.00000   0.00000   0.00000   0.00000   0.00000
  18       10PZ         0.00000   0.00000   0.00000   0.00000   0.00000
  19       11PX         0.00000   0.00000   0.00000   0.00000   0.00000
  20       11PY         0.00000   0.00000   0.00000   0.00000   0.00000
  21       11PZ         0.00000   0.00000   0.00000   0.00000   0.00000
  22 2   O  1S          0.00081   0.00000   0.00000   0.00000   0.00000
  23        2S          0.00130  -0.00000  -0.00000  -0.00000   0.00000
  24        2PX        -0.00055  -0.00000  -0.00000  -0.00000  -0.00001
  25        2PY         0.00003  -0.00000  -0.00000  -0.00000  -0.00000
  26        2PZ        -0.00000  -0.00000  -0.00000  -0.00000  -0.00000
  27        3S         -0.02026  -0.00000  -0.00000  -0.00000  -0.00015
  28        3PX        -0.00358  -0.00002  -0.00000   0.00000  -0.00103
  29        3PY         0.00017  -0.00000  -0.00000  -0.00000  -0.00002
  30        3PZ        -0.00000  -0.00000  -0.00000  -0.00000  -0.00000
  31        4S         -0.05819  -0.00019  -0.00000   0.00000  -0.00272
  32        4PX        -0.01783  -0.00058  -0.00000  -0.00000  -0.00715
  33        4PY         0.00052  -0.00002  -0.00001  -0.00000  -0.00027
  34        4PZ        -0.00000  -0.00000  -0.00000  -0.00002  -0.00000
  35 3   H  1S          0.00842  -0.00000  -0.00000  -0.00000  -0.00003
  36        2S          0.03408  -0.00004  -0.00010  -0.00029  -0.00054
  37        3S          0.00923  -0.00001  -0.00004  -0.00013  -0.00016
  38        4PX         0.00012  -0.00000  -0.00000  -0.00000   0.00000
  39        4PY         0.00035  -0.00000  -0.00000  -0.00001  -0.00002
  40        4PZ         0.00098  -0.00000  -0.00001  -0.00002  -0.00007
  41 4   H  1S          0.00825  -0.00000  -0.00000   0.00000  -0.00004
  42        2S          0.03535  -0.00004  -0.00041  -0.00000  -0.00053
  43        3S          0.01461   0.00000  -0.00016   0.00000   0.00001
  44        4PX         0.00009  -0.00000  -0.00000  -0.00000   0.00000
  45        4PY         0.00149  -0.00000  -0.00004  -0.00000  -0.00009
  46        4PZ        -0.00000   0.00000  -0.00000  -0.00000   0.00000
  47 5   H  1S          0.00842  -0.00000  -0.00000  -0.00000  -0.00003
  48        2S          0.03408  -0.00004  -0.00010  -0.00029  -0.00054
  49        3S          0.00923  -0.00001  -0.00004  -0.00013  -0.00016
  50        4PX         0.00012  -0.00000  -0.00000  -0.00000   0.00000
  51        4PY         0.00035  -0.00000  -0.00000  -0.00001  -0.00002
  52        4PZ         0.00098  -0.00000  -0.00001  -0.00002  -0.00007
  53 6   H  1S          0.00033   0.00000  -0.00000  -0.00000   0.00000
  54        2S          0.00374   0.00000   0.00000   0.00000   0.00010
  55        3S          0.00378   0.00001   0.00000   0.00000   0.00018
  56        4PX         0.00016   0.00000  -0.00000   0.00000   0.00000
  57        4PY        -0.00003   0.00000   0.00000   0.00000   0.00000
  58        4PZ         0.00000   0.00000   0.00000  -0.00000   0.00000
                          11        12        13        14        15
  11        8PY         0.00000
  12        8PZ         0.00000   0.00000
  13        9PX         0.00000   0.00000   0.00000
  14        9PY         0.00000   0.00000   0.00000   0.00000
  15        9PZ         0.00000   0.00000   0.00000   0.00000   0.00000
  16       10PX         0.00000   0.00000   0.00000   0.00000   0.00000
  17       10PY         0.00000   0.00000   0.00000   0.00000   0.00000
  18       10PZ         0.00000   0.00000   0.00000   0.00000   0.00000
  19       11PX         0.00000   0.00000   0.00000   0.00000   0.00000
  20       11PY         0.00000   0.00000   0.00000   0.00000   0.00000
  21       11PZ         0.00000   0.00000   0.00000   0.00000   0.00000
  22 2   O  1S          0.00000   0.00000  -0.00009  -0.00000  -0.00000
  23        2S          0.00000   0.00000  -0.00014  -0.00000  -0.00000
  24        2PX        -0.00000  -0.00000   0.00230   0.00001   0.00000
  25        2PY        -0.00000  -0.00000   0.00003   0.00001   0.00000
  26        2PZ        -0.00000  -0.00000   0.00000   0.00000   0.00003
  27        3S         -0.00000  -0.00000   0.00452   0.00004   0.00000
  28        3PX        -0.00000  -0.00000   0.01766   0.00006   0.00000
  29        3PY        -0.00001  -0.00000   0.00028   0.00017   0.00000
  30        3PZ        -0.00000  -0.00002   0.00000   0.00000   0.00038
  31        4S         -0.00001   0.00000   0.02054  -0.00001  -0.00000
  32        4PX        -0.00000  -0.00000   0.03781   0.00017   0.00000
  33        4PY        -0.00012  -0.00000   0.00146   0.00004  -0.00000
  34        4PZ        -0.00000  -0.00029   0.00000   0.00000   0.00082
  35 3   H  1S         -0.00008  -0.00024   0.00082   0.00196   0.00558
  36        2S         -0.00135  -0.00385   0.00362   0.00894   0.02574
  37        3S         -0.00053  -0.00158   0.00091   0.00342   0.01026
  38        4PX        -0.00003  -0.00007   0.00000   0.00016   0.00050
  39        4PY        -0.00001  -0.00014   0.00015   0.00001   0.00100
  40        4PZ        -0.00015  -0.00029   0.00045   0.00101   0.00162
  41 4   H  1S         -0.00035   0.00000   0.00085   0.00790  -0.00000
  42        2S         -0.00546  -0.00000   0.00355   0.03595  -0.00000
  43        3S         -0.00196   0.00000  -0.00025   0.01247  -0.00000
  44        4PX        -0.00009  -0.00000  -0.00000   0.00062  -0.00000
  45        4PY        -0.00064  -0.00000   0.00057   0.00364  -0.00000
  46        4PZ        -0.00000  -0.00001  -0.00000  -0.00000   0.00015
  47 5   H  1S         -0.00008  -0.00024   0.00082   0.00196   0.00558
  48        2S         -0.00135  -0.00385   0.00362   0.00894   0.02574
  49        3S         -0.00053  -0.00158   0.00091   0.00342   0.01026
  50        4PX        -0.00003  -0.00007   0.00000   0.00016   0.00050
  51        4PY        -0.00001  -0.00014   0.00015   0.00001   0.00100
  52        4PZ        -0.00015  -0.00029   0.00045   0.00101   0.00162
  53 6   H  1S         -0.00000  -0.00000  -0.00005   0.00000  -0.00000
  54        2S          0.00000   0.00000  -0.00191  -0.00005  -0.00000
  55        3S          0.00002   0.00000  -0.00168  -0.00019  -0.00000
  56        4PX        -0.00000   0.00000  -0.00005   0.00000  -0.00000
  57        4PY         0.00000   0.00000  -0.00005   0.00000  -0.00000
  58        4PZ         0.00000  -0.00000  -0.00000  -0.00000   0.00000
                          16        17        18        19        20
  16       10PX         0.00000
  17       10PY         0.00000   0.00000
  18       10PZ         0.00000   0.00000   0.00000
  19       11PX         0.00000   0.00000   0.00000   0.00000
  20       11PY         0.00000   0.00000   0.00000   0.00000   0.00000
  21       11PZ         0.00000   0.00000   0.00000   0.00000   0.00000
  22 2   O  1S          0.00021  -0.00001   0.00000  -0.00014  -0.00003
  23        2S          0.00031  -0.00002   0.00000  -0.00025  -0.00005
  24        2PX         0.00304  -0.00005  -0.00000   0.00012  -0.00005
  25        2PY         0.00013   0.00066   0.00000  -0.00001   0.00093
  26        2PZ        -0.00000  -0.00000   0.00103  -0.00000   0.00000
  27        3S         -0.00531   0.00033  -0.00000   0.00359   0.00084
  28        3PX         0.01582  -0.00027  -0.00000   0.00064  -0.00031
  29        3PY         0.00073   0.00421   0.00000  -0.00003   0.00574
  30        3PZ        -0.00000  -0.00000   0.00648  -0.00000   0.00000
  31        4S          0.00702   0.00042  -0.00000   0.01414   0.00150
  32        4PX         0.02876  -0.00074  -0.00000   0.00075  -0.00102
  33        4PY         0.00252   0.01206  -0.00000   0.00001   0.02245
  34        4PZ        -0.00000  -0.00000   0.02002  -0.00000   0.00000
  35 3   H  1S          0.00176   0.00550   0.01530   0.00031   0.00078
  36        2S          0.00599   0.01960   0.05430   0.00106   0.00263
  37        3S          0.00249   0.00781   0.02289  -0.00006  -0.00097
  38        4PX        -0.00002   0.00022   0.00061   0.00001   0.00002
  39        4PY         0.00013  -0.00017   0.00110   0.00001  -0.00003
  40        4PZ         0.00041   0.00116   0.00092   0.00002   0.00003
  41 4   H  1S          0.00183   0.02194  -0.00000   0.00092   0.00389
  42        2S          0.00559   0.07967   0.00000   0.00392   0.01471
  43        3S         -0.00043   0.03049  -0.00000   0.00148   0.00269
  44        4PX        -0.00005   0.00074  -0.00000  -0.00007   0.00005
  45        4PY         0.00045   0.00286  -0.00000   0.00012  -0.00006
  46        4PZ        -0.00000  -0.00000   0.00033  -0.00000  -0.00000
  47 5   H  1S          0.00176   0.00550   0.01530   0.00031   0.00078
  48        2S          0.00599   0.01960   0.05430   0.00106   0.00263
  49        3S          0.00249   0.00781   0.02289  -0.00006  -0.00097
  50        4PX        -0.00002   0.00022   0.00061   0.00001   0.00002
  51        4PY         0.00013  -0.00017   0.00110   0.00001  -0.00003
  52        4PZ         0.00041   0.00116   0.00092   0.00002   0.00003
  53 6   H  1S         -0.00097   0.00018   0.00000  -0.00138   0.00044
  54        2S         -0.00606   0.00023  -0.00000  -0.00604   0.00067
  55        3S         -0.00273  -0.00043  -0.00000  -0.00294   0.00013
  56        4PX        -0.00013   0.00013  -0.00000  -0.00011   0.00015
  57        4PY        -0.00035   0.00005  -0.00000  -0.00008   0.00024
  58        4PZ         0.00000  -0.00000   0.00013  -0.00000   0.00000
                          21        22        23        24        25
  21       11PZ         0.00000
  22 2   O  1S          0.00000   0.00000
  23        2S          0.00000   0.00000   0.00000
  24        2PX        -0.00000   0.00000   0.00000   0.00000
  25        2PY         0.00000   0.00000   0.00000   0.00000   0.00000
  26        2PZ         0.00134   0.00000   0.00000   0.00000   0.00000
  27        3S         -0.00000   0.00000   0.00000   0.00000   0.00000
  28        3PX        -0.00000   0.00000   0.00000   0.00000   0.00000
  29        3PY         0.00000   0.00000   0.00000   0.00000   0.00000
  30        3PZ         0.00831   0.00000   0.00000   0.00000   0.00000
  31        4S         -0.00000   0.00000   0.00000   0.00000   0.00000
  32        4PX        -0.00000   0.00000   0.00000   0.00000   0.00000
  33        4PY         0.00000   0.00000   0.00000   0.00000   0.00000
  34        4PZ         0.03280   0.00000   0.00000   0.00000   0.00000
  35 3   H  1S          0.00158   0.00000  -0.00000  -0.00000  -0.00000
  36        2S          0.00338   0.00000   0.00000  -0.00001  -0.00000
  37        3S         -0.00407  -0.00006  -0.00009  -0.00014  -0.00011
  38        4PX         0.00003  -0.00000  -0.00000   0.00000   0.00000
  39        4PY        -0.00000   0.00000   0.00000  -0.00000  -0.00000
  40        4PZ        -0.00000   0.00000   0.00000  -0.00000  -0.00000
  41 4   H  1S         -0.00000   0.00000   0.00000  -0.00000  -0.00000
  42        2S         -0.00000   0.00000   0.00000  -0.00001  -0.00001
  43        3S         -0.00000   0.00003   0.00005   0.00017  -0.00024
  44        4PX        -0.00000  -0.00000  -0.00000   0.00000  -0.00000
  45        4PY        -0.00000   0.00000   0.00000  -0.00000  -0.00000
  46        4PZ         0.00000  -0.00000  -0.00000   0.00000  -0.00000
  47 5   H  1S          0.00158   0.00000  -0.00000  -0.00000  -0.00000
  48        2S          0.00338   0.00000   0.00000  -0.00001  -0.00000
  49        3S         -0.00407  -0.00006  -0.00009  -0.00014  -0.00011
  50        4PX         0.00003  -0.00000  -0.00000   0.00000   0.00000
  51        4PY        -0.00000   0.00000   0.00000  -0.00000  -0.00000
  52        4PZ        -0.00000   0.00000   0.00000  -0.00000  -0.00000
  53 6   H  1S         -0.00000  -0.00024  -0.00035   0.00242   0.00458
  54        2S         -0.00000  -0.00077  -0.00128   0.00545   0.00694
  55        3S         -0.00000   0.00006   0.00007   0.00043   0.00057
  56        4PX        -0.00000  -0.00012  -0.00018   0.00019   0.00244
  57        4PY        -0.00000  -0.00059  -0.00096   0.00264  -0.00007
  58        4PZ         0.00042  -0.00000  -0.00000   0.00000   0.00000
                          26        27        28        29        30
  26        2PZ         0.00000
  27        3S          0.00000   0.00000
  28        3PX         0.00000   0.00000   0.00000
  29        3PY         0.00000   0.00000   0.00000   0.00000
  30        3PZ         0.00000   0.00000   0.00000   0.00000   0.00000
  31        4S          0.00000   0.00000   0.00000   0.00000   0.00000
  32        4PX         0.00000   0.00000   0.00000   0.00000   0.00000
  33        4PY         0.00000   0.00000   0.00000   0.00000   0.00000
  34        4PZ         0.00000   0.00000   0.00000   0.00000   0.00000
  35 3   H  1S         -0.00000  -0.00000  -0.00000  -0.00000  -0.00000
  36        2S         -0.00001  -0.00002  -0.00015  -0.00005  -0.00014
  37        3S         -0.00027   0.00187  -0.00091  -0.00074  -0.00177
  38        4PX        -0.00000  -0.00000   0.00000   0.00000  -0.00000
  39        4PY        -0.00000  -0.00000  -0.00000  -0.00000  -0.00000
  40        4PZ        -0.00000  -0.00000  -0.00000  -0.00000  -0.00000
  41 4   H  1S         -0.00000  -0.00000  -0.00000  -0.00000  -0.00000
  42        2S          0.00000  -0.00014  -0.00015  -0.00017   0.00000
  43        3S         -0.00000  -0.00127   0.00114  -0.00153  -0.00000
  44        4PX         0.00000  -0.00000   0.00000  -0.00000   0.00000
  45        4PY        -0.00000  -0.00000  -0.00000  -0.00000  -0.00000
  46        4PZ        -0.00000   0.00000   0.00000  -0.00000  -0.00000
  47 5   H  1S         -0.00000  -0.00000  -0.00000  -0.00000  -0.00000
  48        2S         -0.00001  -0.00002  -0.00015  -0.00005  -0.00014
  49        3S         -0.00027   0.00187  -0.00091  -0.00074  -0.00177
  50        4PX        -0.00000  -0.00000   0.00000   0.00000  -0.00000
  51        4PY        -0.00000  -0.00000  -0.00000  -0.00000  -0.00000
  52        4PZ        -0.00000  -0.00000  -0.00000  -0.00000  -0.00000
  53 6   H  1S          0.00000   0.01304   0.01503   0.02780   0.00000
  54        2S          0.00000   0.02040   0.02703   0.03276   0.00000
  55        3S          0.00000  -0.00020   0.00255   0.00318   0.00000
  56        4PX         0.00000   0.00190  -0.00009   0.00802   0.00000
  57        4PY         0.00000   0.01138   0.00879  -0.00019   0.00000
  58        4PZ         0.00131   0.00000   0.00000   0.00000   0.00637
                          31        32        33        34        35
  31        4S          0.00000
  32        4PX         0.00000   0.00000
  33        4PY         0.00000   0.00000   0.00000
  34        4PZ         0.00000   0.00000   0.00000   0.00000
  35 3   H  1S         -0.00004  -0.00023  -0.00006  -0.00014   0.00000
  36        2S         -0.00058  -0.00308  -0.00103  -0.00300   0.00000
  37        3S          0.00555  -0.00496  -0.00381  -0.00957   0.00000
  38        4PX        -0.00000   0.00004   0.00001  -0.00003   0.00000
  39        4PY        -0.00001  -0.00004   0.00000  -0.00006   0.00000
  40        4PZ        -0.00001  -0.00013  -0.00005  -0.00006   0.00000
  41 4   H  1S         -0.00018  -0.00021  -0.00011  -0.00000  -0.00000
  42        2S         -0.00342  -0.00198  -0.00241   0.00000  -0.00009
  43        3S         -0.00657   0.00538  -0.00748  -0.00000  -0.00119
  44        4PX        -0.00002   0.00007  -0.00006   0.00000   0.00000
  45        4PY        -0.00015  -0.00009  -0.00009  -0.00000  -0.00000
  46        4PZ         0.00000   0.00000  -0.00000  -0.00002   0.00000
  47 5   H  1S         -0.00004  -0.00023  -0.00006  -0.00014  -0.00000
  48        2S         -0.00058  -0.00308  -0.00103  -0.00300  -0.00011
  49        3S          0.00555  -0.00496  -0.00381  -0.00957  -0.00152
  50        4PX        -0.00000   0.00004   0.00001  -0.00003  -0.00000
  51        4PY        -0.00001  -0.00004   0.00000  -0.00006  -0.00000
  52        4PZ        -0.00001  -0.00013  -0.00005  -0.00006  -0.00000
  53 6   H  1S          0.00109   0.01344   0.02957   0.00000  -0.00000
  54        2S         -0.02810   0.03659   0.04163   0.00000   0.00000
  55        3S         -0.01785   0.00565   0.00687   0.00000  -0.00002
  56        4PX        -0.00107  -0.00089   0.00468   0.00000  -0.00000
  57        4PY         0.00466   0.00495   0.00065   0.00000  -0.00000
  58        4PZ         0.00000   0.00000   0.00000   0.01055  -0.00000
                          36        37        38        39        40
  36        2S          0.00000
  37        3S          0.00000   0.00000
  38        4PX         0.00000   0.00000   0.00000
  39        4PY         0.00000   0.00000   0.00000   0.00000
  40        4PZ         0.00000   0.00000   0.00000   0.00000   0.00000
  41 4   H  1S         -0.00009  -0.00128  -0.00000   0.00000  -0.00000
  42        2S         -0.00224  -0.00910  -0.00000  -0.00000  -0.00007
  43        3S         -0.00805  -0.01406  -0.00000  -0.00008  -0.00022
  44        4PX         0.00000   0.00000  -0.00000   0.00000   0.00000
  45        4PY        -0.00010  -0.00045  -0.00000   0.00000  -0.00000
  46        4PZ         0.00003   0.00008   0.00000   0.00000   0.00000
  47 5   H  1S         -0.00011  -0.00152   0.00000   0.00000  -0.00000
  48        2S         -0.00283  -0.01099   0.00000   0.00000  -0.00010
  49        3S         -0.01099  -0.01740   0.00000   0.00000  -0.00043
  50        4PX        -0.00000  -0.00000  -0.00000   0.00000  -0.00000
  51        4PY        -0.00000  -0.00000   0.00000  -0.00000  -0.00000
  52        4PZ        -0.00010  -0.00043   0.00000   0.00000  -0.00000
  53 6   H  1S         -0.00000  -0.00016  -0.00000   0.00000  -0.00000
  54        2S         -0.00001  -0.00073  -0.00000   0.00000  -0.00000
  55        3S         -0.00019  -0.00114  -0.00001   0.00000  -0.00001
  56        4PX        -0.00000  -0.00010  -0.00000   0.00000  -0.00000
  57        4PY        -0.00000  -0.00000   0.00000   0.00000  -0.00000
  58        4PZ        -0.00000  -0.00008  -0.00000  -0.00000  -0.00000
                          41        42        43        44        45
  41 4   H  1S          0.00000
  42        2S          0.00000   0.00000
  43        3S          0.00000   0.00000   0.00000
  44        4PX         0.00000   0.00000   0.00000   0.00000
  45        4PY         0.00000   0.00000   0.00000   0.00000   0.00000
  46        4PZ         0.00000   0.00000   0.00000   0.00000   0.00000
  47 5   H  1S         -0.00000  -0.00009  -0.00119   0.00000  -0.00000
  48        2S         -0.00009  -0.00224  -0.00805   0.00000  -0.00010
  49        3S         -0.00128  -0.00910  -0.01406   0.00000  -0.00045
  50        4PX        -0.00000  -0.00000  -0.00000  -0.00000  -0.00000
  51        4PY         0.00000  -0.00000  -0.00008   0.00000   0.00000
  52        4PZ        -0.00000  -0.00007  -0.00022   0.00000  -0.00000
  53 6   H  1S          0.00000   0.00000   0.00012   0.00000   0.00000
  54        2S          0.00000   0.00005   0.00068   0.00000   0.00000
  55        3S          0.00007   0.00071   0.00132   0.00001   0.00003
  56        4PX         0.00000   0.00000   0.00006   0.00000   0.00000
  57        4PY         0.00000   0.00000  -0.00001  -0.00000   0.00000
  58        4PZ         0.00000   0.00000   0.00000  -0.00000   0.00000
                          46        47        48        49        50
  46        4PZ         0.00000
  47 5   H  1S          0.00000   0.00000
  48        2S          0.00003   0.00000   0.00000
  49        3S          0.00008   0.00000   0.00000   0.00000
  50        4PX         0.00000   0.00000   0.00000   0.00000   0.00000
  51        4PY         0.00000   0.00000   0.00000   0.00000   0.00000
  52        4PZ         0.00000   0.00000   0.00000   0.00000   0.00000
  53 6   H  1S         -0.00000  -0.00000  -0.00000  -0.00016  -0.00000
  54        2S         -0.00000   0.00000  -0.00001  -0.00073  -0.00000
  55        3S         -0.00000  -0.00002  -0.00019  -0.00114  -0.00001
  56        4PX        -0.00000  -0.00000  -0.00000  -0.00010  -0.00000
  57        4PY        -0.00000  -0.00000  -0.00000  -0.00000   0.00000
  58        4PZ        -0.00000  -0.00000  -0.00000  -0.00008  -0.00000
                          51        52        53        54        55
  51        4PY         0.00000
  52        4PZ         0.00000   0.00000
  53 6   H  1S          0.00000  -0.00000   0.00000
  54        2S          0.00000  -0.00000   0.00000   0.00000
  55        3S          0.00000  -0.00001   0.00000   0.00000   0.00000
  56        4PX         0.00000  -0.00000   0.00000   0.00000   0.00000
  57        4PY         0.00000  -0.00000   0.00000   0.00000   0.00000
  58        4PZ        -0.00000  -0.00000   0.00000   0.00000   0.00000
                          56        57        58
  56        4PX         0.00000
  57        4PY         0.00000   0.00000
  58        4PZ         0.00000   0.00000   0.00000
     Bonding Gross orbital populations:
                           1
   1 1   Si 1S          0.00010
   2        2S          0.00090
   3        3S         -0.00874
   4        4S         -0.03493
   5        5S          0.27979
   6        6S          0.07654
   7        7PX        -0.00096
   8        7PY        -0.00093
   9        7PZ        -0.00092
  10        8PX        -0.01335
  11        8PY        -0.01293
  12        8PZ        -0.01268
  13        9PX         0.09725
  14        9PY         0.09185
  15        9PZ         0.09078
  16       10PX         0.07189
  17       10PY         0.22069
  18       10PZ         0.21821
  19       11PX         0.01733
  20       11PY         0.05786
  21       11PZ         0.04469
  22 2   O  1S         -0.00108
  23        2S         -0.00179
  24        2PX         0.01825
  25        2PY         0.01579
  26        2PZ         0.00316
  27        3S          0.03438
  28        3PX         0.09733
  29        3PY         0.07976
  30        3PZ         0.01768
  31        4S         -0.05761
  32        4PX         0.11579
  33        4PY         0.10312
  34        4PZ         0.03813
  35 3   H  1S          0.04753
  36        2S          0.15250
  37        3S         -0.01099
  38        4PX         0.00190
  39        4PY         0.00285
  40        4PZ         0.00688
  41 4   H  1S          0.05233
  42        2S          0.17966
  43        3S          0.02810
  44        4PX         0.00162
  45        4PY         0.01009
  46        4PZ         0.00068
  47 5   H  1S          0.04753
  48        2S          0.15250
  49        3S         -0.01099
  50        4PX         0.00190
  51        4PY         0.00285
  52        4PZ         0.00688
  53 6   H  1S          0.10449
  54        2S          0.12791
  55        3S         -0.00457
  56        4PX         0.01483
  57        4PY         0.03091
  58        4PZ         0.01861
          Bonding Condensed to atoms (all electrons):
               1          2          3          4          5          6
     1  Si   0.000000   0.217445   0.310486   0.362741   0.310486  -0.018693
     2  O    0.217445   0.000000  -0.023906  -0.019466  -0.023906   0.312755
     3  H    0.310486  -0.023906   0.000000  -0.036917  -0.046523  -0.002464
     4  H    0.362741  -0.019466  -0.036917   0.000000  -0.036917   0.003047
     5  H    0.310486  -0.023906  -0.046523  -0.036917   0.000000  -0.002464
     6  H   -0.018693   0.312755  -0.002464   0.003047  -0.002464   0.000000
 Bonding Mulliken charges:
               1
     1  Si  12.817535
     2  O    7.537079
     3  H    0.799323
     4  H    0.727511
     5  H    0.799323
     6  H    0.707819
 Sum of Bonding Mulliken charges =  23.38859
 Bonding Mulliken charges with hydrogens summed into heavy atoms:
               1
     1  Si  15.143692
     2  O    8.244898
 GSVD:  LWork=       -3828 too small for GESVD, short by       17690 words or       17690 for optimal perf.
 Atomic Valencies and Mayer Atomic Bond Orders:
               1          2          3          4          5          6
     1  Si   3.312113   0.698656   0.844523   0.905053   0.844523   0.019358
     2  O    0.698656   1.714226   0.031169  -0.000289   0.031169   0.953521
     3  H    0.844523   0.031169   0.901234   0.010643   0.015147  -0.000247
     4  H    0.905053  -0.000289   0.010643   0.936838   0.010643   0.010789
     5  H    0.844523   0.031169   0.015147   0.010643   0.901234  -0.000247
     6  H    0.019358   0.953521  -0.000247   0.010789  -0.000247   0.983174
 Lowdin Atomic Charges:
               1
     1  Si   0.992737
     2  O   -0.389152
     3  H   -0.216528
     4  H   -0.192958
     5  H   -0.216528
     6  H    0.022428
 Sum of Lowdin charges  =   0.00000
 Lowdin atomic charges with hydrogens summed into heavy atoms:
               1
     1  Si   0.366724
     2  O   -0.366724
     3  H    0.000000
     4  H    0.000000
     5  H    0.000000
     6  H    0.000000
 Sum of Lowdin charges  =   0.00000
 Dipole moment from Lowdin charges (Debye):
    X=     1.4586    Y=     0.1202    Z=    -0.0000  Tot=     1.4636
 Electronic spatial extent (au):  <R**2>=            146.3783
 Charge=             -0.0000 electrons
 Dipole moment (field-independent basis, Debye):
    X=              0.4894    Y=              1.6083    Z=              0.0000  Tot=              1.6811
 Quadrupole moment (field-independent basis, Debye-Ang):
   XX=            -20.2448   YY=            -20.7865   ZZ=            -22.0725
   XY=             -3.5042   XZ=             -0.0000   YZ=              0.0000
 Traceless Quadrupole moment (field-independent basis, Debye-Ang):
   XX=              0.7898   YY=              0.2481   ZZ=             -1.0379
   XY=             -3.5042   XZ=             -0.0000   YZ=              0.0000
 Octapole moment (field-independent basis, Debye-Ang**2):
  XXX=             -7.0741  YYY=              1.1684  ZZZ=              0.0000  XYY=             -3.7364
  XXY=              5.4791  XXZ=              0.0000  XZZ=             -2.1856  YZZ=             -1.2991
  YYZ=              0.0000  XYZ=             -0.0000
 Hexadecapole moment (field-independent basis, Debye-Ang**3):
 XXXX=           -107.0493 YYYY=            -46.8014 ZZZZ=            -47.0461 XXXY=            -11.8811
 XXXZ=             -0.0000 YYYX=             -3.1535 YYYZ=             -0.0000 ZZZX=             -0.0000
 ZZZY=              0.0000 XXYY=            -26.7203 XXZZ=            -29.9239 YYZZ=            -15.9958
 XXYZ=              0.0000 YYXZ=             -0.0000 ZZXY=             -1.7610
 N-N= 6.302088016547D+01 E-N=-9.989251407431D+02  KE= 3.664358907007D+02
 Orbital energies and kinetic energies (alpha):
                                 1                 2
   1         O               -66.137003         92.133023
   2         O               -19.109778         29.133032
   3         O                -5.310864         13.028803
   4         O                -3.670826         12.205986
   5         O                -3.667721         12.216265
   6         O                -3.667715         12.215680
   7         O                -0.992792          2.700504
   8         O                -0.576223          1.629069
   9         O                -0.473458          1.651663
  10         O                -0.379748          1.183166
  11         O                -0.377177          1.323966
  12         O                -0.323253          1.855029
  13         O                -0.299446          1.941759
  14         V                -0.006859          0.904408
  15         V                 0.054530          1.090868
  16         V                 0.065095          0.630484
  17         V                 0.075557          0.724393
  18         V                 0.078184          0.821463
  19         V                 0.140692          0.790536
  20         V                 0.142695          0.788331
  21         V                 0.227564          1.574474
  22         V                 0.282009          0.980502
  23         V                 0.350612          0.979516
  24         V                 0.367106          1.006633
  25         V                 0.445428          1.943261
  26         V                 0.448993          1.501371
  27         V                 0.802241          2.496570
  28         V                 0.810410          2.646904
  29         V                 0.906838          2.883056
  30         V                 0.951832          3.324946
  31         V                 0.965643          3.162768
  32         V                 0.975026          3.274820
  33         V                 1.196360          3.621856
  34         V                 1.244959          1.902207
  35         V                 1.263120          1.894470
  36         V                 1.271659          1.987764
  37         V                 1.365806          2.066544
  38         V                 1.462883          2.503693
  39         V                 1.482378          2.586775
  40         V                 1.526667          2.611296
  41         V                 1.659043          2.697581
  42         V                 1.680122          2.818627
  43         V                 1.680539          2.767813
  44         V                 1.775285          3.145500
  45         V                 2.046745          4.010687
  46         V                 2.353246          4.007024
  47         V                 2.360002          3.988421
  48         V                 2.415180          3.842214
  49         V                 2.494603          4.172453
  50         V                 4.803895         11.672193
  51         V                 4.822985         11.933040
  52         V                 5.141744         12.353324
  53         V                 5.516020         20.587549
  54         V                11.262484         36.663503
  55         V                11.283523         36.688171
  56         V                11.294402         36.695831
  57         V                49.804276        123.756232
  58         V               140.927125        365.786628
 Total kinetic energy from orbitals= 3.664358907007D+02

 Test job not archived.
 1\1\GINC-NODE7\FOpt\RB3LYP\6-311G(3d2f,3p2d)\H4O1Si1\SD\23-Dec-2025\0\
 \# B3LYP/6-311g(3d2f,3p2d) SCF=Tight opt=(tight,maxcycles=300) freq=(r
 aman,hpmodes) nosymm int=finegrid density pop=(full,bonding) iop(6/80=
 1)\\H3SiOH B3LYP_6-311g\\0,1\Si,0.5054897545,0.0202736988,0.\O,-1.2105
 743005,-0.1132117364,0.\H,1.0081370475,0.7328334882,1.1965030363\H,0.9
 985017515,-1.3654124343,0.\H,1.0081370475,0.7328334882,-1.1965030363\H
 ,-1.7832363005,0.6568524955,0.\\Version=ES64L-G16RevA.03\HF=-367.16096
 74\RMSD=1.956e-09\RMSF=5.694e-06\Dipole=0.1925522,0.6327615,0.\Quadrup
 ole=0.5872012,0.1844711,-0.7716723,-2.6052871,0.,0.\PG=CS [SG(H2O1Si1)
 ,X(H2)]\\@


 The hours that make us happy make us wise.
                         -- John Masefield
 Job cpu time:       0 days  0 hours  3 minutes  6.2 seconds.
 Elapsed time:       0 days  0 hours  0 minutes  9.8 seconds.
 File lengths (MBytes):  RWF=      6 Int=      0 D2E=      0 Chk=      2 Scr=      1
 Normal termination of Gaussian 16 at Tue Dec 23 16:27:31 2025.
 Link1:  Proceeding to internal job step number  2.
 ----------------------------------------------------------------------
 #N Geom=AllCheck Guess=TCheck SCRF=Check Test GenChk RB3LYP/6-311G(3d2
 f,3p2d) Freq
 ----------------------------------------------------------------------
 1/6=300,7=10,10=4,29=7,30=1,38=1,40=1/1,3;
 2/12=2,15=1,40=1/2;
 3/5=4,6=6,7=707,11=2,14=-4,25=1,30=1,70=2,71=2,74=-5,75=-4,116=1,140=1/1,2,3;
 4/5=101/1;
 5/5=2,32=2,38=6,98=1/2;
 8/6=4,10=90,11=11/1;
 10/13=10,15=4,31=1/2;
 11/6=3,8=1,9=11,15=111,16=1,31=1/1,2,10;
 10/6=1,31=1/2;
 6/7=3,22=-1,27=20,28=1/1;
 7/8=11,10=1,25=1,30=1/1,2,3,16;
 1/6=300,7=10,10=4,30=1/3;
 99//99;
 Structure from the checkpoint file:  "H3SiOH_B3LYP_6-311g.chk"
 -------------------
 H3SiOH B3LYP_6-311g
 -------------------
 Charge =  0 Multiplicity = 1
 Redundant internal coordinates found in file.  (old form).
 Si,0,0.5054897545,0.0202736988,0.
 O,0,-1.2105743005,-0.1132117364,0.
 H,0,1.0081370475,0.7328334882,1.1965030363
 H,0,0.9985017515,-1.3654124343,0.
 H,0,1.0081370475,0.7328334882,-1.1965030363
 H,0,-1.7832363005,0.6568524955,0.
 Recover connectivity data from disk.

 GradGradGradGradGradGradGradGradGradGradGradGradGradGradGradGradGradGrad
 Berny optimization.
 Initialization pass.
                           ----------------------------
                           !    Initial Parameters    !
                           ! (Angstroms and Degrees)  !
 --------------------------                            --------------------------
 ! Name  Definition              Value          Derivative Info.                !
 --------------------------------------------------------------------------------
 ! R1    R(1,2)                  1.7212         calculate D2E/DX2 analytically  !
 ! R2    R(1,3)                  1.4805         calculate D2E/DX2 analytically  !
 ! R3    R(1,4)                  1.4708         calculate D2E/DX2 analytically  !
 ! R4    R(1,5)                  1.4805         calculate D2E/DX2 analytically  !
 ! R5    R(2,6)                  0.9597         calculate D2E/DX2 analytically  !
 ! A1    A(2,1,3)              112.074          calculate D2E/DX2 analytically  !
 ! A2    A(2,1,4)              105.1372         calculate D2E/DX2 analytically  !
 ! A3    A(2,1,5)              112.074          calculate D2E/DX2 analytically  !
 ! A4    A(3,1,4)              109.8546         calculate D2E/DX2 analytically  !
 ! A5    A(3,1,5)              107.8312         calculate D2E/DX2 analytically  !
 ! A6    A(4,1,5)              109.8546         calculate D2E/DX2 analytically  !
 ! A7    A(1,2,6)              122.1887         calculate D2E/DX2 analytically  !
 ! D1    D(3,1,2,6)             60.7005         calculate D2E/DX2 analytically  !
 ! D2    D(4,1,2,6)            180.0            calculate D2E/DX2 analytically  !
 ! D3    D(5,1,2,6)            -60.7005         calculate D2E/DX2 analytically  !
 --------------------------------------------------------------------------------
 Trust Radius=3.00D-01 FncErr=1.00D-07 GrdErr=1.00D-07 EigMax=2.50D+02 EigMin=1.00D-04
 Number of steps in this run=      2 maximum allowed number of steps=      2.
 GradGradGradGradGradGradGradGradGradGradGradGradGradGradGradGradGradGrad

                          Input orientation:                          
 ---------------------------------------------------------------------
 Center     Atomic      Atomic             Coordinates (Angstroms)
 Number     Number       Type             X           Y           Z
 ---------------------------------------------------------------------
      1         14           0        0.505490    0.020274   -0.000000
      2          8           0       -1.210574   -0.113212   -0.000000
      3          1           0        1.008137    0.732833    1.196503
      4          1           0        0.998502   -1.365412    0.000000
      5          1           0        1.008137    0.732833   -1.196503
      6          1           0       -1.783236    0.656852    0.000000
 ---------------------------------------------------------------------
                    Distance matrix (angstroms):
                    1          2          3          4          5
     1  Si   0.000000
     2  O    1.721248   0.000000
     3  H    1.480546   2.658964   0.000000
     4  H    1.470778   2.539296   2.415440   0.000000
     5  H    1.480546   2.658964   2.393006   2.415440   0.000000
     6  H    2.375605   0.959657   3.037953   3.439131   3.037953
                    6
     6  H    0.000000
 Symmetry turned off by external request.
 Stoichiometry    H4OSi
 Framework group  CS[SG(H2OSi),X(H2)]
 Deg. of freedom     8
 Full point group                 CS      NOp   2
 Rotational constants (GHZ):          78.5192865          12.8073150          12.5950326
 Standard basis: 6-311G(3d2f,3p2d) (5D, 7F)
    58 basis functions,    98 primitive gaussians,    58 cartesian basis functions
    13 alpha electrons       13 beta electrons
       nuclear repulsion energy        63.0208801655 Hartrees.
 NAtoms=    6 NActive=    6 NUniq=    6 SFac= 1.00D+00 NAtFMM=   60 NAOKFM=F Big=F
 Integral buffers will be    131072 words long.
 Raffenetti 2 integral format.
 Two-electron integral symmetry is turned off.
 One-electron integrals computed using PRISM.
 NBasis=    58 RedAO= T EigKep=  1.29D-02  NBF=    58
 NBsUse=    58 1.00D-06 EigRej= -1.00D+00 NBFU=    58
 Initial guess from the checkpoint file:  "H3SiOH_B3LYP_6-311g.chk"
 B after Tr=     0.000000    0.000000    0.000000
         Rot=    1.000000    0.000000    0.000000    0.000000 Ang=   0.00 deg.
 Keep R1 ints in memory in canonical form, NReq=22521086.
 Requested convergence on RMS density matrix=1.00D-08 within 128 cycles.
 Requested convergence on MAX density matrix=1.00D-06.
 Requested convergence on             energy=1.00D-06.
 No special actions if energy rises.
 SCF Done:  E(RB3LYP) =  -367.160967440     A.U. after    1 cycles
            NFock=  1  Conv=0.56D-09     -V/T= 2.0020
 DoSCS=F DFT=T ScalE2(SS,OS)=  1.000000  1.000000
 Range of M.O.s used for correlation:     1    58
 NBasis=    58 NAE=    13 NBE=    13 NFC=     0 NFV=     0
 NROrb=     58 NOA=    13 NOB=    13 NVA=    45 NVB=    45
          Differentiating once with respect to electric field.
                with respect to dipole field.
          Electric field/nuclear overlap derivatives assumed to be zero.
 Keep R1 ints in memory in canonical form, NReq=22482564.
          There are     3 degrees of freedom in the 1st order CPHF.  IDoFFX=0 NUNeed=     3.
      3 vectors produced by pass  0 Test12= 1.95D-14 3.33D-08 XBig12= 1.92D+01 1.98D+00.
 AX will form     3 AO Fock derivatives at one time.
      3 vectors produced by pass  1 Test12= 1.95D-14 3.33D-08 XBig12= 3.00D+00 5.65D-01.
      3 vectors produced by pass  2 Test12= 1.95D-14 3.33D-08 XBig12= 5.61D-01 2.69D-01.
      3 vectors produced by pass  3 Test12= 1.95D-14 3.33D-08 XBig12= 8.74D-03 2.95D-02.
      3 vectors produced by pass  4 Test12= 1.95D-14 3.33D-08 XBig12= 1.39D-04 3.61D-03.
      3 vectors produced by pass  5 Test12= 1.95D-14 3.33D-08 XBig12= 3.18D-06 4.52D-04.
      3 vectors produced by pass  6 Test12= 1.95D-14 3.33D-08 XBig12= 8.27D-08 5.91D-05.
      3 vectors produced by pass  7 Test12= 1.95D-14 3.33D-08 XBig12= 6.08D-10 7.36D-06.
      2 vectors produced by pass  8 Test12= 1.95D-14 3.33D-08 XBig12= 3.38D-12 5.32D-07.
 InvSVY:  IOpt=1 It=  1 EMax= 1.78D-15
 Solved reduced A of dimension    26 with     3 vectors.
 End of Minotr F.D. properties file   721 does not exist.
 End of Minotr F.D. properties file   722 does not exist.
 End of Minotr F.D. properties file   788 does not exist.
 Symmetrizing basis deriv contribution to polar:
 IMax=3 JMax=2 DiffMx= 0.00D+00
 G2DrvN: will do     7 centers at a time, making    1 passes.
 PxScal for G2LodP:  IOpCl= 0 ISclPx=1 IMOff=     1 NMtTot=     4 NTT=    1711 ScalPx= 1.91D+00
 Calling FoFCou, ICntrl=  3107 FMM=F I1Cent=   0 AccDes= 0.00D+00.
 End of G2Drv F.D. properties file   721 does not exist.
 End of G2Drv F.D. properties file   722 does not exist.
 End of G2Drv F.D. properties file   788 does not exist.
          IDoAtm=111111
          Differentiating once with respect to electric field.
                with respect to dipole field.
          Differentiating once with respect to nuclear coordinates.
 Keep R1 ints in memory in canonical form, NReq=22482558.
          There are    21 degrees of freedom in the 1st order CPHF.  IDoFFX=5 NUNeed=    21.
 Will reuse    3 saved solutions.
     15 vectors produced by pass  0 Test12= 2.79D-15 4.76D-09 XBig12= 8.60D-02 1.29D-01.
 AX will form    15 AO Fock derivatives at one time.
     15 vectors produced by pass  1 Test12= 2.79D-15 4.76D-09 XBig12= 4.61D-02 6.30D-02.
     15 vectors produced by pass  2 Test12= 2.79D-15 4.76D-09 XBig12= 5.68D-04 7.35D-03.
     15 vectors produced by pass  3 Test12= 2.79D-15 4.76D-09 XBig12= 2.86D-06 4.90D-04.
     15 vectors produced by pass  4 Test12= 2.79D-15 4.76D-09 XBig12= 2.56D-09 1.50D-05.
      6 vectors produced by pass  5 Test12= 2.79D-15 4.76D-09 XBig12= 1.31D-12 2.77D-07.
      1 vectors produced by pass  6 Test12= 2.79D-15 4.76D-09 XBig12= 1.38D-15 8.92D-09.
 InvSVY:  IOpt=1 It=  1 EMax= 7.77D-16
 Solved reduced A of dimension    82 with    15 vectors.
 Isotropic polarizability for W=    0.000000       27.39 Bohr**3.
 End of Minotr F.D. properties file   721 does not exist.
 End of Minotr F.D. properties file   722 does not exist.
 End of Minotr F.D. properties file   788 does not exist.

 **********************************************************************

            Population analysis using the SCF density.

 **********************************************************************

 Alpha  occ. eigenvalues --  -66.13700 -19.10978  -5.31086  -3.67083  -3.66772
 Alpha  occ. eigenvalues --   -3.66772  -0.99279  -0.57622  -0.47346  -0.37975
 Alpha  occ. eigenvalues --   -0.37718  -0.32325  -0.29945
 Alpha virt. eigenvalues --   -0.00686   0.05453   0.06509   0.07556   0.07818
 Alpha virt. eigenvalues --    0.14069   0.14269   0.22756   0.28201   0.35061
 Alpha virt. eigenvalues --    0.36711   0.44543   0.44899   0.80224   0.81041
 Alpha virt. eigenvalues --    0.90684   0.95183   0.96564   0.97503   1.19636
 Alpha virt. eigenvalues --    1.24496   1.26312   1.27166   1.36581   1.46288
 Alpha virt. eigenvalues --    1.48238   1.52667   1.65904   1.68012   1.68054
 Alpha virt. eigenvalues --    1.77528   2.04675   2.35325   2.36000   2.41518
 Alpha virt. eigenvalues --    2.49460   4.80390   4.82298   5.14174   5.51602
 Alpha virt. eigenvalues --   11.26248  11.28352  11.29440  49.80428 140.92712
     Molecular Orbital Coefficients:
                           1         2         3         4         5
                           O         O         O         O         O
     Eigenvalues --   -66.13700 -19.10978  -5.31086  -3.67083  -3.66772
   1 1   Si 1S          0.41758   0.00000  -0.11702  -0.00065   0.00000
   2        2S          0.64678   0.00000  -0.30379  -0.00173   0.00000
   3        3S          0.01404   0.00002   0.53568   0.00343  -0.00000
   4        4S         -0.00491  -0.00012   0.57232   0.00275  -0.00000
   5        5S          0.00231  -0.00006   0.05933  -0.00035  -0.00000
   6        6S         -0.00165   0.00288  -0.03480   0.00216   0.00000
   7        7PX        -0.00005   0.00001  -0.00183   0.40357  -0.00000
   8        7PY         0.00000  -0.00000   0.00007   0.00648   0.00000
   9        7PZ         0.00000  -0.00000  -0.00000   0.00000   0.40390
  10        8PX        -0.00000  -0.00001  -0.00394   0.68830  -0.00000
  11        8PY         0.00000   0.00001   0.00015   0.01107   0.00000
  12        8PZ        -0.00000   0.00000  -0.00000   0.00000   0.68852
  13        9PX         0.00004  -0.00008  -0.00021   0.06159  -0.00000
  14        9PY        -0.00000  -0.00006   0.00000   0.00096   0.00000
  15        9PZ         0.00000  -0.00000  -0.00000   0.00000   0.06066
  16       10PX        -0.00008  -0.00098  -0.00088  -0.01109   0.00000
  17       10PY        -0.00000   0.00002   0.00015  -0.00023  -0.00000
  18       10PZ         0.00000   0.00000   0.00000  -0.00000  -0.00954
  19       11PX        -0.00012  -0.00004  -0.00210   0.00365  -0.00000
  20       11PY        -0.00002  -0.00047  -0.00061  -0.00027   0.00000
  21       11PZ         0.00000   0.00000  -0.00000  -0.00000   0.00280
  22 2   O  1S          0.00000   0.55131  -0.00007   0.00035   0.00000
  23        2S         -0.00000   0.46986  -0.00007   0.00049   0.00000
  24        2PX         0.00002   0.00054   0.00018  -0.00062  -0.00000
  25        2PY         0.00000   0.00146   0.00001  -0.00009   0.00000
  26        2PZ        -0.00000   0.00000  -0.00000   0.00000   0.00007
  27        3S          0.00005   0.01259   0.00014  -0.00104  -0.00000
  28        3PX        -0.00003  -0.00019  -0.00020  -0.00065  -0.00000
  29        3PY        -0.00001   0.00003   0.00002   0.00002   0.00000
  30        3PZ         0.00000   0.00000   0.00000  -0.00000   0.00013
  31        4S         -0.00014  -0.00561  -0.00030  -0.00236   0.00000
  32        4PX        -0.00018  -0.00106  -0.00179  -0.00114  -0.00000
  33        4PY        -0.00006  -0.00015  -0.00073  -0.00036   0.00000
  34        4PZ        -0.00000  -0.00000  -0.00000   0.00000   0.00038
  35 3   H  1S          0.00004   0.00008   0.00036   0.00018   0.00047
  36        2S         -0.00026  -0.00031  -0.00310   0.00058   0.00101
  37        3S          0.00043  -0.00033   0.00802  -0.00069  -0.00049
  38        4PX         0.00005   0.00016   0.00038   0.00021   0.00001
  39        4PY         0.00007   0.00005   0.00044   0.00001   0.00003
  40        4PZ         0.00011   0.00004   0.00074  -0.00004   0.00021
  41 4   H  1S          0.00004   0.00005   0.00032   0.00017  -0.00000
  42        2S         -0.00026  -0.00020  -0.00289   0.00054  -0.00000
  43        3S          0.00040  -0.00088   0.00737  -0.00104   0.00000
  44        4PX         0.00005   0.00014   0.00037   0.00021   0.00000
  45        4PY        -0.00013  -0.00008  -0.00081   0.00001   0.00000
  46        4PZ         0.00000  -0.00000   0.00000   0.00000   0.00016
  47 5   H  1S          0.00004   0.00008   0.00036   0.00018  -0.00047
  48        2S         -0.00026  -0.00031  -0.00310   0.00058  -0.00101
  49        3S          0.00043  -0.00033   0.00802  -0.00069   0.00049
  50        4PX         0.00005   0.00016   0.00038   0.00021  -0.00001
  51        4PY         0.00007   0.00005   0.00044   0.00001  -0.00003
  52        4PZ        -0.00011  -0.00004  -0.00074   0.00004   0.00021
  53 6   H  1S         -0.00001   0.00001   0.00002   0.00010  -0.00000
  54        2S          0.00005  -0.00030   0.00021  -0.00024  -0.00000
  55        3S          0.00005   0.00063   0.00148   0.00098  -0.00000
  56        4PX         0.00008  -0.00035   0.00076  -0.00010   0.00000
  57        4PY         0.00003   0.00076   0.00032   0.00002   0.00000
  58        4PZ         0.00000   0.00000   0.00000  -0.00000  -0.00008
                           6         7         8         9        10
                           O         O         O         O         O
     Eigenvalues --    -3.66772  -0.99279  -0.57622  -0.47346  -0.37975
   1 1   Si 1S          0.00004   0.00599   0.02399  -0.01160  -0.00000
   2        2S          0.00011   0.01630   0.06582  -0.03200  -0.00000
   3        3S         -0.00021  -0.03571  -0.14979   0.07446   0.00000
   4        4S         -0.00019  -0.05894  -0.24397   0.11485   0.00000
   5        5S          0.00008   0.11079   0.47202  -0.20393  -0.00000
   6        6S          0.00036  -0.05426   0.15335  -0.20950   0.00000
   7        7PX        -0.00649   0.02052   0.00708   0.04615  -0.00000
   8        7PY         0.40385   0.00041   0.00494   0.01856   0.00000
   9        7PZ        -0.00000  -0.00000  -0.00000   0.00000  -0.06968
  10        8PX        -0.01104   0.03831   0.01449   0.08298  -0.00000
  11        8PY         0.68838   0.00091   0.00899   0.03291   0.00000
  12        8PZ        -0.00000   0.00000   0.00000   0.00000  -0.12179
  13        9PX        -0.00102  -0.04918  -0.02704  -0.11836   0.00000
  14        9PY         0.06080  -0.00261  -0.01165  -0.04082  -0.00000
  15        9PZ        -0.00000  -0.00000  -0.00000  -0.00000   0.16104
  16       10PX         0.00005   0.00796   0.00580  -0.08061   0.00000
  17       10PY        -0.00970   0.00786  -0.01435  -0.06852  -0.00000
  18       10PZ         0.00000   0.00000   0.00000  -0.00000   0.23460
  19       11PX        -0.00017  -0.00670   0.00156  -0.03895   0.00000
  20       11PY         0.00298  -0.00338   0.00251  -0.03305  -0.00000
  21       11PZ        -0.00000   0.00000   0.00000   0.00000   0.08918
  22 2   O  1S          0.00002  -0.11685   0.00599  -0.02698  -0.00000
  23        2S          0.00003  -0.18677   0.00961  -0.04362  -0.00000
  24        2PX        -0.00005   0.00682   0.14042   0.13262  -0.00000
  25        2PY         0.00008   0.04731  -0.07013  -0.12598  -0.00000
  26        2PZ        -0.00000   0.00000  -0.00000  -0.00000   0.13646
  27        3S         -0.00014   0.53263  -0.03530   0.11938   0.00000
  28        3PX         0.00002   0.02234   0.20467   0.19351  -0.00000
  29        3PY         0.00008   0.07350  -0.09504  -0.17000  -0.00000
  30        3PZ        -0.00000   0.00000  -0.00000  -0.00000   0.19432
  31        4S          0.00023   0.43294   0.03536   0.26410   0.00000
  32        4PX        -0.00052   0.05697   0.14011   0.17519  -0.00000
  33        4PY         0.00067   0.03502  -0.04659  -0.12473  -0.00000
  34        4PZ        -0.00000   0.00000  -0.00000  -0.00000   0.19542
  35 3   H  1S          0.00029   0.00395   0.05728  -0.07643   0.11668
  36        2S          0.00056  -0.00160   0.08932  -0.13098   0.22118
  37        3S         -0.00038   0.01715   0.02667  -0.02008   0.10182
  38        4PX         0.00003  -0.00079  -0.00469   0.00342  -0.01049
  39        4PY         0.00020   0.00019  -0.00566   0.00799  -0.01247
  40        4PZ         0.00004   0.00094  -0.01012   0.01332  -0.01802
  41 4   H  1S         -0.00057   0.00384   0.06457  -0.04141   0.00000
  42        2S         -0.00128   0.00317   0.09232  -0.08607   0.00000
  43        3S          0.00071   0.01384   0.03413  -0.01861  -0.00000
  44        4PX        -0.00001  -0.00110  -0.00492   0.00004  -0.00000
  45        4PY         0.00023  -0.00025   0.01091  -0.01443   0.00000
  46        4PZ        -0.00000  -0.00000   0.00000  -0.00000   0.00338
  47 5   H  1S          0.00029   0.00395   0.05728  -0.07643  -0.11668
  48        2S          0.00056  -0.00160   0.08932  -0.13098  -0.22118
  49        3S         -0.00038   0.01715   0.02667  -0.02008  -0.10182
  50        4PX         0.00003  -0.00079  -0.00469   0.00342   0.01049
  51        4PY         0.00020   0.00019  -0.00566   0.00799   0.01247
  52        4PZ        -0.00004  -0.00094   0.01012  -0.01332  -0.01802
  53 6   H  1S         -0.00002   0.10520  -0.11217  -0.12253   0.00000
  54        2S         -0.00048   0.08817  -0.15857  -0.18391   0.00000
  55        3S         -0.00026   0.01165  -0.03754  -0.05203   0.00000
  56        4PX         0.00007   0.01587  -0.01806  -0.02366  -0.00000
  57        4PY         0.00010  -0.02528   0.02315   0.01647  -0.00000
  58        4PZ         0.00000  -0.00000   0.00000   0.00000   0.01372
                          11        12        13        14        15
                           O         O         O         V         V
     Eigenvalues --    -0.37718  -0.32325  -0.29945  -0.00686   0.05453
   1 1   Si 1S          0.00015   0.00207   0.00000  -0.00463   0.02158
   2        2S          0.00044   0.00570   0.00000  -0.01263   0.05973
   3        3S         -0.00126  -0.01326  -0.00000   0.02823  -0.14155
   4        4S         -0.00035  -0.02179  -0.00000   0.05717  -0.23749
   5        5S         -0.00265   0.04942   0.00000  -0.13789   0.42610
   6        6S          0.03469  -0.00621  -0.00000   0.17171   2.26688
   7        7PX        -0.03083   0.02566  -0.00000  -0.04667  -0.01792
   8        7PY         0.06265   0.03673  -0.00000   0.00304  -0.00278
   9        7PZ         0.00000   0.00000   0.02523  -0.00000  -0.00000
  10        8PX        -0.05475   0.04530  -0.00000  -0.08078  -0.02752
  11        8PY         0.10925   0.06383  -0.00000   0.00595  -0.00434
  12        8PZ         0.00000   0.00000   0.04354  -0.00000  -0.00000
  13        9PX         0.07658  -0.06291  -0.00000   0.09895   0.01522
  14        9PY        -0.14398  -0.09401   0.00000  -0.01203   0.00370
  15        9PZ        -0.00000  -0.00000  -0.06827   0.00000   0.00000
  16       10PX         0.07307  -0.06671   0.00000   0.34678   0.24000
  17       10PY        -0.21188  -0.08022   0.00000   0.00036   0.03439
  18       10PZ        -0.00000  -0.00000  -0.03229   0.00000   0.00000
  19       11PX         0.02850  -0.00010   0.00000   0.88555   0.20893
  20       11PY        -0.09659   0.04348  -0.00000  -0.28969  -0.13305
  21       11PZ        -0.00000  -0.00000   0.07484   0.00000   0.00000
  22 2   O  1S         -0.01264   0.02739   0.00000  -0.03715   0.01080
  23        2S         -0.02069   0.04470   0.00000  -0.05941   0.01747
  24        2PX        -0.11526   0.11382   0.00000   0.05179  -0.05815
  25        2PY        -0.09964   0.19675  -0.00000   0.06718  -0.01100
  26        2PZ        -0.00000   0.00000   0.26104  -0.00000  -0.00000
  27        3S          0.07108  -0.14070  -0.00000   0.14691  -0.04666
  28        3PX        -0.16243   0.15947   0.00000   0.07198  -0.07596
  29        3PY        -0.14507   0.27294  -0.00000   0.10969  -0.02192
  30        3PZ        -0.00000   0.00000   0.36340  -0.00000  -0.00000
  31        4S          0.00991  -0.14948   0.00000   0.74624  -0.20452
  32        4PX        -0.16326   0.17781   0.00000   0.16685  -0.14635
  33        4PY        -0.16703   0.31352  -0.00000   0.16358  -0.01619
  34        4PZ        -0.00000   0.00000   0.41980  -0.00000  -0.00000
  35 3   H  1S         -0.03898  -0.06793  -0.08294   0.00842  -0.05215
  36        2S         -0.07556  -0.14743  -0.20792  -0.00781  -0.00250
  37        3S         -0.02969  -0.11876  -0.17597  -0.12309  -1.12654
  38        4PX         0.00584   0.00284   0.00677   0.02322  -0.00263
  39        4PY         0.00094   0.00505   0.01491  -0.00333  -0.00750
  40        4PZ         0.00675   0.01771   0.02114   0.00079  -0.00896
  41 4   H  1S          0.14801   0.08943  -0.00000  -0.01343  -0.05896
  42        2S          0.28795   0.21090  -0.00000  -0.03856  -0.02904
  43        3S          0.10299   0.16026  -0.00000  -0.47732  -1.21851
  44        4PX        -0.00977  -0.00849  -0.00000   0.02302  -0.00130
  45        4PY         0.03003   0.02571  -0.00000  -0.00546   0.00830
  46        4PZ         0.00000  -0.00000  -0.00402   0.00000   0.00000
  47 5   H  1S         -0.03898  -0.06793   0.08294   0.00842  -0.05215
  48        2S         -0.07556  -0.14743   0.20792  -0.00781  -0.00250
  49        3S         -0.02969  -0.11876   0.17597  -0.12309  -1.12654
  50        4PX         0.00584   0.00284  -0.00677   0.02322  -0.00263
  51        4PY         0.00094   0.00505  -0.01491  -0.00333  -0.00750
  52        4PZ        -0.00675  -0.01771   0.02114  -0.00079   0.00896
  53 6   H  1S          0.00870   0.05063  -0.00000  -0.03270   0.01269
  54        2S          0.04577   0.04819   0.00000  -0.12920   0.04933
  55        3S          0.02231   0.02271   0.00000  -0.21593  -0.07197
  56        4PX        -0.00384   0.01699   0.00000   0.00035  -0.00685
  57        4PY        -0.02066   0.01595  -0.00000  -0.00062  -0.00979
  58        4PZ        -0.00000   0.00000   0.02685  -0.00000   0.00000
                          16        17        18        19        20
                           V         V         V         V         V
     Eigenvalues --     0.06509   0.07556   0.07818   0.14069   0.14269
   1 1   Si 1S         -0.00044  -0.00000  -0.00027  -0.00000  -0.00054
   2        2S         -0.00108  -0.00000  -0.00068  -0.00000  -0.00148
   3        3S          0.00132   0.00000   0.00102  -0.00000   0.00347
   4        4S          0.01018   0.00000   0.00601   0.00000   0.00647
   5        5S         -0.07121  -0.00000  -0.02858   0.00000  -0.03789
   6        6S          0.26391  -0.00000   0.00871  -0.00000  -0.01516
   7        7PX        -0.01227   0.00000  -0.01274  -0.00000   0.00647
   8        7PY        -0.03875  -0.00000   0.02119   0.00000  -0.07343
   9        7PZ         0.00000  -0.04317  -0.00000  -0.07541  -0.00000
  10        8PX        -0.02086   0.00000  -0.02146  -0.00000   0.01007
  11        8PY        -0.06635  -0.00000   0.03439   0.00000  -0.11450
  12        8PZ         0.00000  -0.07413  -0.00000  -0.11740  -0.00000
  13        9PX         0.02346  -0.00000   0.01578   0.00000  -0.00831
  14        9PY         0.06870   0.00000  -0.02637  -0.00000   0.06916
  15        9PZ        -0.00000   0.08452   0.00000   0.07096   0.00000
  16       10PX         0.11345  -0.00000   0.21400   0.00000  -0.08281
  17       10PY         0.40309   0.00000  -0.26549  -0.00000   1.10385
  18       10PZ        -0.00000   0.41413   0.00000   1.12484   0.00000
  19       11PX         0.20444  -0.00000   0.85590  -0.00000   0.30376
  20       11PY         1.73923   0.00000  -0.19196   0.00000  -1.04479
  21       11PZ        -0.00000   1.67419   0.00000  -0.94495  -0.00000
  22 2   O  1S         -0.01290  -0.00000   0.01893  -0.00000   0.00620
  23        2S         -0.02068  -0.00000   0.03100  -0.00000   0.01017
  24        2PX        -0.00208  -0.00000   0.10827  -0.00000   0.01256
  25        2PY        -0.06991   0.00000  -0.07540   0.00000  -0.01497
  26        2PZ         0.00000  -0.10007  -0.00000  -0.00250  -0.00000
  27        3S          0.05289   0.00000  -0.09529   0.00000  -0.03432
  28        3PX        -0.00483  -0.00000   0.12616  -0.00000   0.01041
  29        3PY        -0.07471   0.00000  -0.09817   0.00000  -0.02246
  30        3PZ         0.00000  -0.12186  -0.00000  -0.00600  -0.00000
  31        4S          0.22431   0.00000  -0.31441   0.00000  -0.07645
  32        4PX         0.03218  -0.00000   0.41572   0.00000   0.02882
  33        4PY        -0.22414   0.00000  -0.23044  -0.00000   0.01079
  34        4PZ         0.00000  -0.27341  -0.00000   0.00292  -0.00000
  35 3   H  1S         -0.04380  -0.06802  -0.01729   0.00530  -0.00665
  36        2S         -0.13502  -0.17525  -0.08262   0.09820  -0.01745
  37        3S         -0.90421  -1.31856  -0.01459  -0.47968  -0.20685
  38        4PX         0.00933   0.00251   0.01299  -0.00362   0.00004
  39        4PY         0.03258  -0.00297  -0.00415  -0.00492   0.00080
  40        4PZ        -0.00070   0.02964   0.00198  -0.00577  -0.00148
  41 4   H  1S          0.07173   0.00000  -0.04220   0.00000  -0.01404
  42        2S          0.17321   0.00000  -0.17526   0.00000  -0.13338
  43        3S          1.42902   0.00000  -0.50775  -0.00000   0.44475
  44        4PX         0.00138  -0.00000   0.01319  -0.00000   0.00883
  45        4PY         0.03097   0.00000  -0.01140   0.00000  -0.00865
  46        4PZ        -0.00000   0.03545   0.00000   0.00266   0.00000
  47 5   H  1S         -0.04380   0.06802  -0.01729  -0.00530  -0.00665
  48        2S         -0.13502   0.17525  -0.08262  -0.09820  -0.01745
  49        3S         -0.90421   1.31856  -0.01459   0.47968  -0.20685
  50        4PX         0.00933  -0.00251   0.01299   0.00362   0.00004
  51        4PY         0.03258   0.00297  -0.00415   0.00492   0.00080
  52        4PZ         0.00070   0.02964  -0.00198  -0.00577   0.00148
  53 6   H  1S         -0.03555  -0.00000   0.06245   0.00000  -0.00460
  54        2S         -0.01921  -0.00000   0.07082   0.00000  -0.14236
  55        3S         -0.07577  -0.00000   1.55184  -0.00000   0.53811
  56        4PX         0.00238   0.00000  -0.02149   0.00000  -0.00876
  57        4PY         0.00828  -0.00000   0.01557  -0.00000   0.01086
  58        4PZ         0.00000  -0.00861  -0.00000  -0.01234  -0.00000
                          21        22        23        24        25
                           V         V         V         V         V
     Eigenvalues --     0.22756   0.28201   0.35061   0.36711   0.44543
   1 1   Si 1S          0.00866  -0.00000   0.00122   0.00000  -0.02982
   2        2S          0.02412   0.00071   0.00367   0.00000  -0.07923
   3        3S         -0.05875  -0.00860  -0.01145  -0.00000   0.15696
   4        4S         -0.09384   0.03157  -0.00213  -0.00000   0.50729
   5        5S         -0.02278  -0.58541  -0.19599  -0.00000  -2.88479
   6        6S          1.51106   0.92384   0.32161   0.00000   5.78687
   7        7PX         0.08063  -0.04117  -0.01070  -0.00000   0.00477
   8        7PY         0.00459  -0.00325   0.03375   0.00000   0.00159
   9        7PZ        -0.00000   0.00000   0.00000  -0.04951   0.00000
  10        8PX         0.12420  -0.06472  -0.01903  -0.00000   0.00361
  11        8PY         0.00700  -0.00554   0.05686   0.00000   0.00404
  12        8PZ        -0.00000   0.00000   0.00000  -0.07997   0.00000
  13        9PX        -0.05153   0.01623   0.02684   0.00000   0.04317
  14        9PY        -0.00686  -0.00519  -0.02879  -0.00000  -0.01823
  15        9PZ         0.00000   0.00000   0.00000   0.01550  -0.00000
  16       10PX        -1.50724   0.86138   0.21181   0.00000  -0.27817
  17       10PY        -0.07426   0.08352  -0.61550  -0.00000   0.02069
  18       10PZ         0.00000  -0.00000  -0.00000   1.00772   0.00000
  19       11PX         1.40776  -0.80739  -0.45991  -0.00000   0.66424
  20       11PY        -0.05745  -0.25343   1.62560   0.00000  -0.00508
  21       11PZ         0.00000   0.00000   0.00000  -1.85388   0.00000
  22 2   O  1S          0.02044   0.00085   0.00898   0.00000   0.00438
  23        2S          0.03374   0.00273   0.01528   0.00000   0.00624
  24        2PX        -0.13025  -0.02614   0.00969   0.00000   0.03363
  25        2PY        -0.01821   0.04402  -0.02314  -0.00000  -0.00888
  26        2PZ        -0.00000   0.00000  -0.00000  -0.01682   0.00000
  27        3S         -0.09636  -0.04868  -0.03780  -0.00000   0.01360
  28        3PX        -0.16911  -0.05491   0.01549   0.00000   0.06263
  29        3PY        -0.02827   0.06538  -0.04749  -0.00000  -0.02678
  30        3PZ        -0.00000   0.00000  -0.00000  -0.02636   0.00000
  31        4S         -0.42315   0.27708  -0.32473  -0.00000  -0.58208
  32        4PX        -0.59386  -0.02337   0.28351   0.00000  -0.17760
  33        4PY        -0.08634   0.28216  -0.39867  -0.00000  -0.06225
  34        4PZ        -0.00000   0.00000  -0.00000   0.00543  -0.00000
  35 3   H  1S         -0.04799  -0.08422   0.00351  -0.06596   0.04754
  36        2S         -0.25209  -0.86710   0.27923  -1.25384   0.28324
  37        3S         -0.18481   0.69147  -0.85948   2.27898  -1.70063
  38        4PX        -0.01026   0.02120   0.00412   0.01407   0.00449
  39        4PY         0.00008   0.01391  -0.02712   0.01980   0.01291
  40        4PZ         0.00242   0.02036  -0.01795   0.07055   0.02527
  41 4   H  1S         -0.04037  -0.05983  -0.09309  -0.00000   0.04766
  42        2S         -0.11990  -0.45385  -1.38212  -0.00000   0.31463
  43        3S         -0.53546  -0.07131   2.46538   0.00000  -1.76417
  44        4PX        -0.00912   0.02216  -0.00191  -0.00000   0.00400
  45        4PY         0.00828   0.00268  -0.07039  -0.00000  -0.02226
  46        4PZ         0.00000  -0.00000  -0.00000   0.03742  -0.00000
  47 5   H  1S         -0.04799  -0.08422   0.00351   0.06596   0.04754
  48        2S         -0.25209  -0.86710   0.27923   1.25384   0.28324
  49        3S         -0.18481   0.69147  -0.85948  -2.27898  -1.70063
  50        4PX        -0.01026   0.02120   0.00412  -0.01407   0.00449
  51        4PY         0.00008   0.01391  -0.02712  -0.01980   0.01291
  52        4PZ        -0.00242  -0.02036   0.01795   0.07055  -0.02527
  53 6   H  1S          0.01396  -0.04843   0.08411   0.00000  -0.00041
  54        2S          0.06793  -0.48417   1.14428   0.00000   0.18712
  55        3S          0.03519  -0.32626  -1.06975  -0.00000  -0.25503
  56        4PX         0.00639   0.00112   0.04472   0.00000   0.05748
  57        4PY        -0.01310   0.02193  -0.02984  -0.00000   0.03310
  58        4PZ         0.00000   0.00000  -0.00000  -0.01731   0.00000
                          26        27        28        29        30
                           V         V         V         V         V
     Eigenvalues --     0.44899   0.80224   0.81041   0.90684   0.95183
   1 1   Si 1S          0.00131  -0.00015  -0.00000   0.00059   0.00095
   2        2S          0.00358  -0.00017  -0.00000   0.00291   0.00246
   3        3S         -0.00808  -0.00204  -0.00000  -0.01999  -0.00428
   4        4S         -0.01760   0.01380   0.00000   0.05330  -0.01969
   5        5S          0.07809  -0.03806  -0.00000  -0.14091   0.15647
   6        6S         -0.44423  -0.24844  -0.00000  -1.02010  -0.50986
   7        7PX        -0.00802  -0.00876  -0.00000   0.06479   0.07151
   8        7PY        -0.03723  -0.00292  -0.00000  -0.01559   0.12517
   9        7PZ         0.00000   0.00000  -0.01194   0.00000   0.00000
  10        8PX        -0.01403  -0.02347  -0.00000   0.12054   0.15804
  11        8PY        -0.05816  -0.01170  -0.00000  -0.03135   0.27199
  12        8PZ         0.00000   0.00000  -0.02744   0.00000   0.00000
  13        9PX         0.01979   0.09182   0.00000  -0.46594  -0.74056
  14        9PY        -0.00270   0.11932   0.00000   0.09413  -1.26596
  15        9PZ        -0.00000  -0.00000   0.14529  -0.00000  -0.00000
  16       10PX         0.21063   0.11059   0.00000   1.12895   1.03037
  17       10PY         0.88024  -0.46423  -0.00000   0.18141   1.56449
  18       10PZ        -0.00000   0.00000  -0.31813   0.00000   0.00000
  19       11PX        -0.34986  -0.23286  -0.00000  -0.24804  -0.42896
  20       11PY        -1.05001  -0.13942  -0.00000  -0.36055  -0.46532
  21       11PZ         0.00000   0.00000  -0.46237   0.00000  -0.00000
  22 2   O  1S          0.01864  -0.01060  -0.00000  -0.01096   0.03853
  23        2S          0.03244  -0.01747  -0.00000  -0.01957   0.07441
  24        2PX         0.07377  -0.04118  -0.00000  -0.24379  -0.02106
  25        2PY        -0.10747  -0.24251  -0.00000   0.02110  -0.03661
  26        2PZ        -0.00000   0.00000  -0.26116   0.00000  -0.00000
  27        3S         -0.11650   0.01511   0.00000   0.12770  -0.52745
  28        3PX         0.11470  -0.17277  -0.00000  -0.74049   0.00465
  29        3PY        -0.18350  -0.72158  -0.00000   0.02286  -0.03982
  30        3PZ        -0.00000   0.00000  -0.80924   0.00000  -0.00000
  31        4S         -0.44813   0.62734   0.00000  -0.26992   1.08142
  32        4PX         0.56965  -0.05436   0.00000   1.88805   0.03194
  33        4PY        -0.64691   1.58972   0.00000  -0.46623   0.20008
  34        4PZ        -0.00000  -0.00000   1.23710  -0.00000   0.00000
  35 3   H  1S         -0.02877  -0.00713  -0.01083   0.00521   0.03565
  36        2S         -0.56539   0.09411   0.06299  -0.00724  -0.10353
  37        3S          1.01827   0.14763   0.32413   0.30190   0.05188
  38        4PX         0.02322  -0.03643  -0.04657   0.09105   0.12565
  39        4PY         0.04879  -0.10075   0.05158   0.04306   0.18455
  40        4PZ        -0.00362   0.06783  -0.03016   0.00362   0.11882
  41 4   H  1S          0.03153   0.01004   0.00000   0.01088  -0.03846
  42        2S          0.83774  -0.22661  -0.00000   0.27277   0.11811
  43        3S         -1.21825   0.09977   0.00000  -0.29326   0.27622
  44        4PX        -0.03185   0.10842   0.00000  -0.02164   0.01191
  45        4PY         0.04289  -0.00311   0.00000  -0.07523   0.24732
  46        4PZ        -0.00000   0.00000  -0.11728   0.00000   0.00000
  47 5   H  1S         -0.02877  -0.00713   0.01083   0.00521   0.03565
  48        2S         -0.56539   0.09411  -0.06299  -0.00724  -0.10353
  49        3S          1.01827   0.14763  -0.32413   0.30190   0.05188
  50        4PX         0.02322  -0.03643   0.04657   0.09105   0.12565
  51        4PY         0.04879  -0.10075  -0.05158   0.04306   0.18455
  52        4PZ         0.00362  -0.06783  -0.03016  -0.00362  -0.11882
  53 6   H  1S          0.11963  -0.02204  -0.00000  -0.01161   0.00157
  54        2S          1.84767  -0.72633  -0.00000   0.56766  -0.21125
  55        3S         -1.00025  -0.23938  -0.00000   0.64926  -0.29660
  56        4PX         0.02801  -0.10112  -0.00000   0.14436  -0.08485
  57        4PY        -0.00845   0.15596   0.00000  -0.12662   0.07915
  58        4PZ         0.00000  -0.00000   0.02748  -0.00000  -0.00000
                          31        32        33        34        35
                           V         V         V         V         V
     Eigenvalues --     0.96564   0.97503   1.19636   1.24496   1.26312
   1 1   Si 1S          0.00000  -0.00004   0.00196  -0.00000  -0.00000
   2        2S          0.00000  -0.00077   0.00651  -0.00000  -0.00000
   3        3S         -0.00000   0.00814  -0.02606   0.00000   0.00000
   4        4S         -0.00000  -0.02585   0.01354   0.00000  -0.00000
   5        5S         -0.00000   0.08471   0.28281  -0.00000   0.00000
   6        6S          0.00000  -0.09258  -1.23704   0.00000   0.00000
   7        7PX        -0.00000   0.11176  -0.07352   0.00000   0.00000
   8        7PY        -0.00000  -0.07711  -0.01141  -0.00000   0.00000
   9        7PZ         0.14838  -0.00000  -0.00000  -0.00190  -0.00155
  10        8PX        -0.00000   0.25372  -0.18340   0.00000   0.00000
  11        8PY        -0.00000  -0.17195  -0.02670  -0.00000   0.00000
  12        8PZ         0.32498  -0.00000  -0.00000  -0.00388  -0.00352
  13        9PX         0.00000  -1.20971   0.92488  -0.00000  -0.00000
  14        9PY         0.00000   0.85445   0.15095   0.00000  -0.00000
  15        9PZ        -1.53588   0.00000   0.00000   0.01791   0.01686
  16       10PX        -0.00000   1.51282  -0.81853   0.00000   0.00000
  17       10PY        -0.00000  -1.27125  -0.24225   0.00000   0.00000
  18       10PZ         1.95086  -0.00000  -0.00000  -0.01821  -0.01641
  19       11PX         0.00000  -0.73338   0.47204  -0.00000  -0.00000
  20       11PY         0.00000   0.81314   0.22749  -0.00000   0.00000
  21       11PZ        -0.77452  -0.00000  -0.00000  -0.07763  -0.00306
  22 2   O  1S         -0.00000   0.04617   0.08986  -0.00000  -0.00000
  23        2S         -0.00000   0.08812   0.17886  -0.00000  -0.00000
  24        2PX         0.00000   0.01603  -0.03406  -0.00000   0.00000
  25        2PY         0.00000  -0.00236   0.00230   0.00000  -0.00000
  26        2PZ        -0.03592  -0.00000  -0.00000  -0.04005  -0.00071
  27        3S          0.00000  -0.62179  -1.34118   0.00000   0.00000
  28        3PX         0.00000   0.15043  -0.23759  -0.00000   0.00000
  29        3PY         0.00000   0.05253   0.10080   0.00000  -0.00000
  30        3PZ        -0.08771  -0.00000   0.00000  -0.08595  -0.00164
  31        4S         -0.00000   1.42007   2.00478  -0.00000   0.00000
  32        4PX        -0.00000  -0.36138   0.09021   0.00000  -0.00000
  33        4PY        -0.00000   0.47057   0.14344  -0.00000   0.00000
  34        4PZ         0.04330   0.00000   0.00000   0.08970   0.00253
  35 3   H  1S          0.04435  -0.00176   0.03399   0.00055   0.00094
  36        2S         -0.19517   0.04744   0.15939  -0.00125  -0.00062
  37        3S          0.00237  -0.09168   0.11489   0.05334   0.00763
  38        4PX         0.07662   0.07021   0.15698   0.61967   0.01605
  39        4PY         0.10723  -0.08207  -0.05308  -0.23474   0.49095
  40        4PZ         0.30553   0.01666  -0.05122  -0.11381  -0.29206
  41 4   H  1S         -0.00000   0.02699   0.01883  -0.00000   0.00000
  42        2S         -0.00000  -0.34621   0.08172   0.00000  -0.00000
  43        3S          0.00000   0.44079   0.29952  -0.00000   0.00000
  44        4PX         0.00000   0.19440  -0.02751   0.00000  -0.00000
  45        4PY        -0.00000  -0.27557  -0.07987   0.00000  -0.00000
  46        4PZ         0.13143  -0.00000  -0.00000   0.24163   0.59202
  47 5   H  1S         -0.04435  -0.00176   0.03399  -0.00055  -0.00094
  48        2S          0.19517   0.04744   0.15939   0.00125   0.00062
  49        3S         -0.00237  -0.09168   0.11489  -0.05334  -0.00763
  50        4PX        -0.07662   0.07021   0.15698  -0.61967  -0.01605
  51        4PY        -0.10723  -0.08207  -0.05308   0.23474  -0.49095
  52        4PZ         0.30553  -0.01666   0.05122  -0.11381  -0.29206
  53 6   H  1S          0.00000   0.05865  -0.02844  -0.00000  -0.00000
  54        2S         -0.00000  -0.55437  -0.54589   0.00000  -0.00000
  55        3S         -0.00000  -0.61466  -0.02289   0.00000  -0.00000
  56        4PX        -0.00000  -0.25952   0.17890   0.00000  -0.00000
  57        4PY         0.00000   0.04437   0.37682  -0.00000  -0.00000
  58        4PZ        -0.04489  -0.00000   0.00000   0.17144   0.00479
                          36        37        38        39        40
                           V         V         V         V         V
     Eigenvalues --     1.27166   1.36581   1.46288   1.48238   1.52667
   1 1   Si 1S          0.00078   0.00000   0.00169   0.00000  -0.00235
   2        2S          0.00248   0.00000   0.00484   0.00000  -0.00710
   3        3S         -0.00918  -0.00000  -0.01282  -0.00000   0.02242
   4        4S          0.00225  -0.00000  -0.02518   0.00000   0.02251
   5        5S          0.05955   0.00000   0.17342  -0.00000  -0.27911
   6        6S         -0.34357  -0.00000  -0.10565   0.00000   0.23355
   7        7PX        -0.01067   0.00000   0.03336  -0.00000  -0.06267
   8        7PY        -0.00438   0.00000   0.06525  -0.00000   0.04206
   9        7PZ         0.00000  -0.01789   0.00000   0.08209  -0.00000
  10        8PX        -0.02987   0.00000   0.07410  -0.00000  -0.14128
  11        8PY        -0.01064   0.00000   0.16074  -0.00000   0.09692
  12        8PZ         0.00000  -0.04457   0.00000   0.19429  -0.00000
  13        9PX         0.16565  -0.00000  -0.38093   0.00000   0.77530
  14        9PY         0.04643  -0.00000  -0.91374   0.00000  -0.53548
  15        9PZ        -0.00000   0.25611  -0.00000  -1.05330   0.00000
  16       10PX        -0.10168   0.00000   0.27420  -0.00000  -0.68900
  17       10PY         0.02059   0.00000   1.26800  -0.00000   0.70439
  18       10PZ         0.00000  -0.33344   0.00000   1.30323  -0.00000
  19       11PX         0.09416  -0.00000  -0.07236  -0.00000   0.14332
  20       11PY         0.01501   0.00000  -0.19307   0.00000  -0.10745
  21       11PZ         0.00000  -0.00240  -0.00000  -0.18823   0.00000
  22 2   O  1S          0.01430  -0.00000  -0.01244  -0.00000   0.00964
  23        2S          0.02757  -0.00000  -0.02583  -0.00000   0.01967
  24        2PX        -0.02755  -0.00000   0.00206  -0.00000  -0.00922
  25        2PY         0.04632   0.00000   0.02127  -0.00000   0.03849
  26        2PZ         0.00000  -0.02438   0.00000   0.01276   0.00000
  27        3S         -0.18177   0.00000   0.22457   0.00000  -0.13778
  28        3PX        -0.10988   0.00000   0.06771  -0.00000  -0.11439
  29        3PY         0.13137  -0.00000   0.08168  -0.00000   0.04925
  30        3PZ         0.00000  -0.03117   0.00000   0.07041  -0.00000
  31        4S          0.12029  -0.00000  -0.39607  -0.00000  -0.15533
  32        4PX         0.30872  -0.00000  -0.10937   0.00000   0.61482
  33        4PY        -0.38118   0.00000  -0.57715   0.00000  -0.11919
  34        4PZ        -0.00000  -0.27942  -0.00000  -0.47256   0.00000
  35 3   H  1S          0.01087   0.03295  -0.04330  -0.06696  -0.03123
  36        2S          0.01401   0.05130  -0.19940  -0.25888   0.01989
  37        3S          0.05551   0.02832   0.10851   0.09519  -0.08707
  38        4PX        -0.33370  -0.19336  -0.04066   0.00490   0.25035
  39        4PY        -0.02892  -0.10865  -0.56660   0.07964  -0.22844
  40        4PZ         0.18263   0.18989   0.16179  -0.42571   0.06815
  41 4   H  1S         -0.00369   0.00000   0.09368  -0.00000   0.03834
  42        2S          0.07115   0.00000   0.26762  -0.00000   0.23749
  43        3S          0.01475   0.00000  -0.07670   0.00000  -0.13584
  44        4PX         0.75590  -0.00000  -0.09620   0.00000   0.24581
  45        4PY         0.27272  -0.00000  -0.26009   0.00000  -0.15804
  46        4PZ         0.00000   0.37026  -0.00000  -0.55060   0.00000
  47 5   H  1S          0.01087  -0.03295  -0.04330   0.06696  -0.03123
  48        2S          0.01401  -0.05130  -0.19940   0.25888   0.01989
  49        3S          0.05551  -0.02832   0.10851  -0.09519  -0.08707
  50        4PX        -0.33370   0.19336  -0.04066  -0.00490   0.25035
  51        4PY        -0.02892   0.10865  -0.56660  -0.07964  -0.22844
  52        4PZ        -0.18263   0.18989  -0.16179  -0.42571  -0.06815
  53 6   H  1S          0.06397  -0.00000   0.03141  -0.00000  -0.02829
  54        2S          0.18572   0.00000   0.36240  -0.00000   0.32601
  55        3S          0.07179  -0.00000  -0.03780   0.00000   0.01028
  56        4PX         0.07344   0.00000   0.35389  -0.00000  -0.64921
  57        4PY         0.04767  -0.00000   0.20024  -0.00000  -0.53823
  58        4PZ         0.00000   0.89961   0.00000   0.52820  -0.00000
                          41        42        43        44        45
                           V         V         V         V         V
     Eigenvalues --     1.65904   1.68012   1.68054   1.77528   2.04675
   1 1   Si 1S          0.00055  -0.00000   0.00165   0.01537   0.00137
   2        2S          0.00150  -0.00000   0.00464   0.04332   0.00410
   3        3S         -0.00400   0.00000  -0.01244  -0.11318  -0.01291
   4        4S         -0.00193   0.00000  -0.01694  -0.21798  -0.01305
   5        5S          0.02697  -0.00000   0.04847   0.67453   0.09533
   6        6S         -0.51355   0.00000  -0.22144   1.37702  -0.07926
   7        7PX        -0.01535   0.00000  -0.01470  -0.03461  -0.00409
   8        7PY         0.05370   0.00000  -0.06981   0.00202  -0.00454
   9        7PZ        -0.00000   0.08085   0.00000  -0.00000  -0.00000
  10        8PX        -0.02024   0.00000  -0.02242  -0.06636  -0.00905
  11        8PY         0.10991   0.00000  -0.13975   0.00489  -0.00363
  12        8PZ        -0.00000   0.15958   0.00000  -0.00000  -0.00000
  13        9PX        -0.07038   0.00000   0.00228   0.32483   0.05239
  14        9PY        -0.46581  -0.00000   0.52739  -0.00218  -0.00283
  15        9PZ         0.00000  -0.60198  -0.00000   0.00000  -0.00000
  16       10PX         1.03449  -0.00000   0.61661  -0.70047  -0.05323
  17       10PY         0.10341  -0.00000   0.23052  -0.12216   0.05471
  18       10PZ         0.00000  -0.22668  -0.00000  -0.00000   0.00000
  19       11PX        -0.02225   0.00000  -0.02290   0.24253   0.16386
  20       11PY        -0.23428  -0.00000   0.34360  -0.05315  -0.08329
  21       11PZ         0.00000  -0.44058  -0.00000   0.00000   0.00000
  22 2   O  1S          0.02983  -0.00000   0.01371  -0.03012   0.03594
  23        2S          0.06112  -0.00000   0.02801  -0.06091   0.07008
  24        2PX        -0.02975   0.00000  -0.00846   0.03711   0.10266
  25        2PY        -0.00684  -0.00000   0.02684   0.00316  -0.15252
  26        2PZ         0.00000  -0.02409  -0.00000   0.00000  -0.00000
  27        3S         -0.53539   0.00000  -0.25164   0.52265  -0.38454
  28        3PX        -0.13677   0.00000  -0.10472   0.15839   0.28509
  29        3PY        -0.01448  -0.00000   0.12027  -0.01885  -0.40741
  30        3PZ         0.00000  -0.09784  -0.00000   0.00000  -0.00000
  31        4S          1.22950  -0.00000   0.61044  -1.12741  -0.38437
  32        4PX         0.63981  -0.00000   0.49273  -0.75007   0.08572
  33        4PY         0.30777   0.00000  -0.19374  -0.15086  -0.02526
  34        4PZ        -0.00000   0.38030   0.00000  -0.00000  -0.00000
  35 3   H  1S         -0.04823   0.10429  -0.12924  -0.30222  -0.01494
  36        2S         -0.01988  -0.07822   0.06387   0.26442   0.02911
  37        3S          0.16451   0.62283  -0.33564  -0.53008  -0.06085
  38        4PX        -0.51774  -0.32558  -0.05421   0.29871   0.02027
  39        4PY         0.17904  -0.49716  -0.00566   0.29121   0.01726
  40        4PZ         0.02345  -0.40548   0.64130   0.36669   0.04412
  41 4   H  1S         -0.12214  -0.00000   0.03231  -0.32502   0.08941
  42        2S          0.10294   0.00000  -0.01348   0.24323  -0.07071
  43        3S         -0.35129  -0.00000   0.52909  -0.66919  -0.03837
  44        4PX        -0.21909   0.00000  -0.53196   0.32977  -0.02158
  45        4PY        -0.70243  -0.00000   0.37275  -0.55699  -0.00842
  46        4PZ        -0.00000   0.44640   0.00000  -0.00000  -0.00000
  47 5   H  1S         -0.04823  -0.10429  -0.12924  -0.30222  -0.01494
  48        2S         -0.01988   0.07822   0.06387   0.26442   0.02911
  49        3S          0.16451  -0.62283  -0.33564  -0.53008  -0.06085
  50        4PX        -0.51774   0.32558  -0.05421   0.29871   0.02027
  51        4PY         0.17904   0.49716  -0.00566   0.29121   0.01726
  52        4PZ        -0.02345  -0.40548  -0.64130  -0.36669  -0.04412
  53 6   H  1S         -0.00476   0.00000  -0.00138  -0.03911   1.02499
  54        2S         -0.27972  -0.00000   0.07569   0.14158  -0.71482
  55        3S          0.12764   0.00000  -0.01335   0.00130   0.74749
  56        4PX        -0.25412   0.00000  -0.21059   0.28819   0.62135
  57        4PY        -0.10619   0.00000  -0.04106   0.14977  -0.84120
  58        4PZ         0.00000  -0.26009  -0.00000   0.00000  -0.00000
                          46        47        48        49        50
                           V         V         V         V         V
     Eigenvalues --     2.35325   2.36000   2.41518   2.49460   4.80390
   1 1   Si 1S         -0.00000   0.00103  -0.00162  -0.01220   0.00000
   2        2S         -0.00000   0.00298  -0.00449  -0.03493   0.00000
   3        3S          0.00000  -0.00870   0.01091   0.09669  -0.00000
   4        4S         -0.00000  -0.01318   0.03207   0.19903   0.00000
   5        5S         -0.00000   0.05378  -0.11080  -0.81760  -0.00000
   6        6S          0.00000  -0.01627  -0.11099  -0.35216  -0.00000
   7        7PX         0.00000  -0.00773   0.01430   0.00952   0.00000
   8        7PY        -0.00000   0.00528  -0.00644   0.00388   0.00000
   9        7PZ        -0.00064  -0.00000  -0.00000  -0.00000   0.00047
  10        8PX         0.00000  -0.01464   0.02772   0.02689   0.00000
  11        8PY         0.00000  -0.01821  -0.01835   0.00414   0.00000
  12        8PZ         0.02649   0.00000  -0.00000   0.00000  -0.00214
  13        9PX        -0.00000   0.08818  -0.17139  -0.12204  -0.00000
  14        9PY        -0.00000   0.08979   0.05497  -0.01582  -0.00000
  15        9PZ        -0.12997  -0.00000   0.00000   0.00000   0.00788
  16       10PX         0.00000  -0.03913   0.13352  -0.05536   0.00000
  17       10PY        -0.00000   0.40182   0.41623  -0.00330  -0.00000
  18       10PZ        -0.41980  -0.00000  -0.00000  -0.00000   0.05064
  19       11PX        -0.00000   0.08826  -0.12508   0.17228  -0.00000
  20       11PY         0.00000  -0.49275  -0.31996  -0.04705  -0.00000
  21       11PZ         0.48071   0.00000   0.00000   0.00000   0.23204
  22 2   O  1S          0.00000  -0.01399   0.02873   0.00660   0.00000
  23        2S          0.00000  -0.03138   0.06504   0.01164   0.00000
  24        2PX        -0.00000   0.00710   0.00306  -0.00777   0.00000
  25        2PY         0.00000  -0.02274   0.01902  -0.01094   0.00000
  26        2PZ         0.00771   0.00000   0.00000  -0.00000  -1.26635
  27        3S         -0.00000   0.26028  -0.50118  -0.13585  -0.00000
  28        3PX         0.00000  -0.15731   0.36318  -0.16658  -0.00000
  29        3PY        -0.00000   0.20479  -0.45083   0.12116  -0.00000
  30        3PZ        -0.02079   0.00000  -0.00000   0.00000   1.43276
  31        4S         -0.00000   0.22649  -0.96916   0.80104   0.00000
  32        4PX        -0.00000  -0.02683   0.45116   0.25548   0.00000
  33        4PY         0.00000   0.05619  -0.67288   0.21418   0.00000
  34        4PZ         0.10218   0.00000  -0.00000   0.00000  -0.62804
  35 3   H  1S         -1.12658   0.67691   0.09194  -0.84382  -0.00945
  36        2S          1.64501  -0.97785  -0.22318   1.31277   0.00773
  37        3S         -1.06305   0.57845   0.32356  -0.36203  -0.16037
  38        4PX        -0.06478   0.04424  -0.01534  -0.07511  -0.00038
  39        4PY        -0.09674  -0.05243  -0.09709  -0.16981   0.02052
  40        4PZ        -0.02651   0.11316   0.02661  -0.29631   0.00269
  41 4   H  1S          0.00000  -1.09663  -0.72982  -0.85068  -0.00000
  42        2S         -0.00000   1.62900   1.18095   1.31181   0.00000
  43        3S          0.00000  -1.14241  -0.67673  -0.39080  -0.00000
  44        4PX         0.00000  -0.07502  -0.03820  -0.07671  -0.00000
  45        4PY        -0.00000   0.03250   0.15343   0.33363  -0.00000
  46        4PZ         0.13887   0.00000  -0.00000   0.00000  -0.03198
  47 5   H  1S          1.12658   0.67691   0.09194  -0.84382   0.00945
  48        2S         -1.64501  -0.97785  -0.22318   1.31277  -0.00773
  49        3S          1.06305   0.57845   0.32356  -0.36203   0.16037
  50        4PX         0.06478   0.04424  -0.01534  -0.07511   0.00038
  51        4PY         0.09674  -0.05243  -0.09709  -0.16981  -0.02052
  52        4PZ        -0.02651  -0.11316  -0.02661   0.29631   0.00269
  53 6   H  1S         -0.00000   0.52598  -1.03555   0.34071  -0.00000
  54        2S          0.00000  -1.02714   2.75911  -0.90795   0.00000
  55        3S         -0.00000   0.35189  -0.57867   0.40765   0.00000
  56        4PX         0.00000  -0.27972   0.72015  -0.24006   0.00000
  57        4PY        -0.00000   0.34627  -0.96699   0.20542  -0.00000
  58        4PZ        -0.04620  -0.00000  -0.00000   0.00000  -0.02550
                          51        52        53        54        55
                           V         V         V         V         V
     Eigenvalues --     4.82298   5.14174   5.51602  11.26248  11.28352
   1 1   Si 1S         -0.01514   0.02187   0.10799   0.00108   0.00000
   2        2S         -0.05640   0.08197   0.40557   0.00408   0.00000
   3        3S          0.31305  -0.46519  -2.34444  -0.03066  -0.00000
   4        4S         -0.35945   0.55180   2.80695   0.05433   0.00000
   5        5S          0.26045  -0.41269  -2.00801  -0.06551  -0.00000
   6        6S          0.33754  -0.20579   1.52559  -0.09671  -0.00000
   7        7PX        -0.04014   0.02897   0.00057  -1.18924  -0.00000
   8        7PY        -0.00319   0.00860  -0.00186  -0.05465  -0.00000
   9        7PZ        -0.00000   0.00000   0.00000   0.00000  -1.19162
  10        8PX        -0.00032  -0.00445   0.00342   1.37369   0.00000
  11        8PY        -0.00141  -0.00149   0.00029   0.06311   0.00000
  12        8PZ        -0.00000  -0.00000   0.00000  -0.00000   1.37995
  13        9PX         0.05739  -0.00581  -0.03800  -1.01457  -0.00000
  14        9PY         0.01020  -0.02017   0.00533  -0.04580  -0.00000
  15        9PZ         0.00000  -0.00000  -0.00000   0.00000  -1.02138
  16       10PX        -0.26022   0.18817   0.01398   0.69094   0.00000
  17       10PY         0.01365   0.10634  -0.01643   0.03022   0.00000
  18       10PZ         0.00000   0.00000  -0.00000  -0.00000   0.61386
  19       11PX         0.03889   0.06608   0.09514  -0.25054  -0.00000
  20       11PY         0.18123   0.06043   0.03323   0.00785  -0.00000
  21       11PZ         0.00000   0.00000   0.00000   0.00000  -0.20825
  22 2   O  1S         -0.00496  -0.00711   0.00077   0.00191  -0.00000
  23        2S         -0.01193  -0.01300   0.00265   0.00107  -0.00000
  24        2PX        -0.91350   0.85447  -0.30561   0.06311   0.00000
  25        2PY        -0.86524  -0.94159   0.06947   0.00851  -0.00000
  26        2PZ        -0.00000  -0.00000   0.00000   0.00000  -0.00039
  27        3S          0.12636   0.04699  -0.05296   0.00960   0.00000
  28        3PX         1.06692  -1.17465   0.39688  -0.09591  -0.00000
  29        3PY         0.98548   1.27360  -0.10928  -0.01868   0.00000
  30        3PZ         0.00000   0.00000  -0.00000  -0.00000  -0.00447
  31        4S         -0.33264   0.37731   0.07095   0.07551   0.00000
  32        4PX        -0.65179   0.72913  -0.03272   0.07645   0.00000
  33        4PY        -0.48298  -0.48070   0.10096   0.00642  -0.00000
  34        4PZ        -0.00000  -0.00000   0.00000   0.00000  -0.01441
  35 3   H  1S          0.00861  -0.02407  -0.05926  -0.00489   0.00240
  36        2S         -0.05667   0.08560   0.26734  -0.00086  -0.03755
  37        3S         -0.11876  -0.03021  -0.39560   0.03836   0.05097
  38        4PX         0.02706  -0.03642  -0.04973  -0.02636  -0.02683
  39        4PY        -0.00004  -0.03637  -0.07331  -0.02180  -0.03766
  40        4PZ         0.03948  -0.01959  -0.12370  -0.03334  -0.06875
  41 4   H  1S          0.01558  -0.01156  -0.05577  -0.00352  -0.00000
  42        2S         -0.06574   0.12350   0.25213   0.00114   0.00000
  43        3S          0.08048   0.02515  -0.35214   0.05244  -0.00000
  44        4PX         0.02630  -0.01487  -0.05316  -0.02272   0.00000
  45        4PY        -0.01971   0.04628   0.14436   0.03496  -0.00000
  46        4PZ        -0.00000  -0.00000  -0.00000  -0.00000  -0.00469
  47 5   H  1S          0.00861  -0.02407  -0.05926  -0.00489  -0.00240
  48        2S         -0.05667   0.08560   0.26734  -0.00086   0.03755
  49        3S         -0.11876  -0.03021  -0.39560   0.03836  -0.05097
  50        4PX         0.02706  -0.03642  -0.04973  -0.02636   0.02683
  51        4PY        -0.00004  -0.03637  -0.07331  -0.02180   0.03766
  52        4PZ        -0.03948   0.01959   0.12370   0.03334  -0.06875
  53 6   H  1S         -0.07538  -0.26305   0.05362  -0.02498   0.00000
  54        2S          0.18319   0.00239  -0.04570   0.05382   0.00000
  55        3S         -0.15489   0.16355  -0.08722  -0.07121   0.00000
  56        4PX        -0.00013  -0.29152  -0.03796   0.02680  -0.00000
  57        4PY         0.01374   0.29426  -0.08494   0.01063   0.00000
  58        4PZ        -0.00000   0.00000  -0.00000   0.00000   0.00390
                          56        57        58
                           V         V         V
     Eigenvalues --    11.29440  49.80428 140.92712
   1 1   Si 1S         -0.00005   0.00006  -1.55014
   2        2S         -0.00017   0.00009   1.86073
   3        3S          0.00118  -0.00210  -1.26341
   4        4S         -0.00153   0.00796   0.83066
   5        5S          0.00286  -0.00033  -0.42402
   6        6S         -0.02115  -0.13163   0.30209
   7        7PX         0.05492  -0.00062  -0.00132
   8        7PY        -1.19055   0.00042  -0.00001
   9        7PZ         0.00000   0.00000  -0.00000
  10        8PX        -0.06383   0.00058   0.00363
  11        8PY         1.38038  -0.00104  -0.00000
  12        8PZ        -0.00000  -0.00000   0.00000
  13        9PX         0.05075   0.00324  -0.00895
  14        9PY        -1.02822   0.00304   0.00031
  15        9PZ         0.00000   0.00000  -0.00000
  16       10PX        -0.02879   0.04690   0.01567
  17       10PY         0.62589  -0.00064   0.00015
  18       10PZ        -0.00000  -0.00000  -0.00000
  19       11PX         0.02212  -0.00070   0.02127
  20       11PY        -0.21981   0.01551   0.00440
  21       11PZ         0.00000  -0.00000   0.00000
  22 2   O  1S         -0.00061  -2.24637  -0.00032
  23        2S         -0.00066   2.33487   0.00041
  24        2PX         0.00826  -0.00076  -0.00450
  25        2PY        -0.00586   0.00844  -0.00047
  26        2PZ        -0.00000   0.00000  -0.00000
  27        3S          0.00936  -0.27346  -0.00904
  28        3PX        -0.02003   0.00579   0.00667
  29        3PY         0.01115  -0.03440   0.00147
  30        3PZ         0.00000  -0.00000   0.00000
  31        4S         -0.00679   0.22255   0.02703
  32        4PX         0.03132   0.05568   0.03332
  33        4PY        -0.02946   0.01448   0.01123
  34        4PZ         0.00000   0.00000   0.00000
  35 3   H  1S          0.00096  -0.00425  -0.00847
  36        2S         -0.02065   0.01448   0.04905
  37        3S          0.03351   0.01783  -0.07843
  38        4PX        -0.01630  -0.00796  -0.00993
  39        4PY        -0.02789  -0.00253  -0.01298
  40        4PZ        -0.03644  -0.00226  -0.02149
  41 4   H  1S         -0.00715  -0.00295  -0.00781
  42        2S          0.05572   0.01117   0.04816
  43        3S         -0.07131   0.03633  -0.07332
  44        4PX         0.03198  -0.00743  -0.00983
  45        4PY        -0.09425   0.00428   0.02530
  46        4PZ         0.00000  -0.00000  -0.00000
  47 5   H  1S          0.00096  -0.00425  -0.00847
  48        2S         -0.02065   0.01448   0.04905
  49        3S          0.03351   0.01783  -0.07843
  50        4PX        -0.01630  -0.00796  -0.00993
  51        4PY        -0.02789  -0.00253  -0.01298
  52        4PZ         0.03644   0.00226   0.02149
  53 6   H  1S          0.00512  -0.00128   0.00168
  54        2S          0.00126   0.02734  -0.00920
  55        3S          0.02847  -0.02688  -0.00895
  56        4PX        -0.01599   0.02414  -0.01417
  57        4PY         0.00396  -0.04660  -0.00508
  58        4PZ        -0.00000  -0.00000  -0.00000
     Density Matrix:
                           1         2         3         4         5
   1 1   Si 1S          0.37763
   2        2S          0.61539   1.03255
   3        3S         -0.12306  -0.33312   0.63319
   4        4S         -0.15322  -0.39571   0.70802   0.80848
   5        5S          0.01696   0.04630  -0.11737  -0.22449   0.56528
   6        6S          0.01832   0.05078  -0.11050  -0.15611   0.21325
   7        7PX        -0.00053  -0.00143   0.00349   0.00376  -0.00539
   8        7PY        -0.00001  -0.00003   0.00007   0.00012   0.00055
   9        7PZ        -0.00000  -0.00000   0.00000  -0.00000   0.00000
  10        8PX        -0.00058  -0.00168   0.00471   0.00481  -0.00786
  11        8PY        -0.00002  -0.00005   0.00012   0.00017   0.00112
  12        8PZ         0.00000   0.00000  -0.00000  -0.00000   0.00000
  13        9PX         0.00062   0.00172  -0.00434  -0.00541   0.00515
  14        9PY        -0.00007  -0.00020   0.00044   0.00080  -0.00345
  15        9PZ        -0.00000  -0.00000   0.00000   0.00000  -0.00000
  16       10PX         0.00215   0.00596  -0.01374  -0.02049   0.03303
  17       10PY         0.00056   0.00156  -0.00364  -0.00584   0.00936
  18       10PZ         0.00000   0.00000  -0.00000  -0.00000   0.00000
  19       11PX         0.00129   0.00361  -0.00808  -0.01131   0.01546
  20       11PY         0.00112   0.00309  -0.00700  -0.01094   0.01984
  21       11PZ        -0.00000  -0.00000   0.00000   0.00000  -0.00000
  22 2   O  1S         -0.00036  -0.00095   0.00179   0.00326  -0.00654
  23        2S         -0.00057  -0.00150   0.00278   0.00519  -0.01006
  24        2PX         0.00415   0.01134  -0.02534  -0.04354   0.09187
  25        2PY         0.00091   0.00253  -0.00608  -0.00879   0.01563
  26        2PZ         0.00000   0.00000  -0.00000   0.00000   0.00000
  27        3S          0.00137   0.00352  -0.00599  -0.01191   0.02174
  28        3PX         0.00623   0.01704  -0.03814  -0.06513   0.13585
  29        3PY         0.00134   0.00373  -0.00895  -0.01312   0.02365
  30        3PZ         0.00000   0.00000  -0.00000   0.00000   0.00000
  31        4S          0.00010   0.00018   0.00141  -0.00148   0.00674
  32        4PX         0.00429   0.01183  -0.02618  -0.04452   0.09167
  33        4PY         0.00244   0.00678  -0.01579  -0.02442   0.04643
  34        4PZ         0.00000   0.00000  -0.00000  -0.00000   0.00000
  35 3   H  1S          0.00423   0.01159  -0.02654  -0.04257   0.07965
  36        2S          0.00718   0.01988  -0.04537  -0.07054   0.12285
  37        3S         -0.00007  -0.00035  -0.00038  -0.00527   0.02654
  38        4PX        -0.00035  -0.00099   0.00229   0.00348  -0.00570
  39        4PY        -0.00048  -0.00137   0.00321   0.00486  -0.00801
  40        4PZ        -0.00079  -0.00225   0.00526   0.00796  -0.01298
  41 4   H  1S          0.00448   0.01228  -0.02819  -0.04511   0.08679
  42        2S          0.00788   0.02184  -0.05012  -0.07789   0.14194
  43        3S          0.00154   0.00410  -0.01059  -0.02119   0.05905
  44        4PX        -0.00033  -0.00095   0.00220   0.00334  -0.00565
  45        4PY         0.00105   0.00299  -0.00703  -0.01068   0.01841
  46        4PZ         0.00000   0.00000  -0.00000  -0.00000   0.00000
  47 5   H  1S          0.00423   0.01159  -0.02654  -0.04257   0.07965
  48        2S          0.00718   0.01988  -0.04537  -0.07054   0.12285
  49        3S         -0.00007  -0.00035  -0.00038  -0.00527   0.02654
  50        4PX        -0.00035  -0.00099   0.00229   0.00348  -0.00570
  51        4PY        -0.00048  -0.00137   0.00321   0.00486  -0.00801
  52        4PZ         0.00079   0.00225  -0.00526  -0.00796   0.01298
  53 6   H  1S         -0.00108  -0.00293   0.00650   0.01200  -0.02764
  54        2S         -0.00208  -0.00570   0.01265   0.02284  -0.05060
  55        3S         -0.00066  -0.00179   0.00360   0.00569  -0.00934
  56        4PX        -0.00017  -0.00052   0.00113   0.00163  -0.00209
  57        4PY         0.00043   0.00117  -0.00270  -0.00484   0.01126
  58        4PZ         0.00000   0.00000  -0.00000  -0.00000   0.00000
                           6         7         8         9        10
   6        6S          0.14564
   7        7PX        -0.01998   0.33424
   8        7PY        -0.00210  -0.00019   0.33755
   9        7PZ        -0.00000  -0.00000   0.00000   0.33725
  10        8PX        -0.03560   0.57084  -0.00028  -0.00000   0.97502
  11        8PY        -0.00381  -0.00026   0.57583   0.00000  -0.00036
  12        8PZ        -0.00000  -0.00000   0.00000   0.57536  -0.00000
  13        9PX         0.05301   0.02845   0.00025   0.00000   0.04653
  14        9PY         0.00504   0.00000   0.02254  -0.00000  -0.00008
  15        9PZ         0.00000  -0.00000  -0.00000   0.02311  -0.00000
  16       10PX         0.04059  -0.02390   0.00122   0.00000  -0.04190
  17       10PY         0.00974   0.00268  -0.04296  -0.00000   0.00465
  18       10PZ         0.00000   0.00000   0.00000  -0.04203   0.00000
  19       11PX         0.01966  -0.00266   0.00204  -0.00000  -0.00502
  20       11PY         0.00778   0.00478  -0.00771   0.00000   0.00841
  21       11PZ        -0.00000   0.00000  -0.00000  -0.00639   0.00000
  22 2   O  1S          0.02778  -0.00472  -0.00059  -0.00000  -0.00892
  23        2S          0.04222  -0.00758  -0.00096  -0.00000  -0.01429
  24        2PX        -0.02266   0.02695   0.00019   0.00000   0.04868
  25        2PY         0.01679   0.00549  -0.00330   0.00000   0.00930
  26        2PZ        -0.00000   0.00000   0.00000  -0.00578   0.00000
  27        3S         -0.11191   0.01993   0.00296   0.00000   0.03764
  28        3PX        -0.03397   0.03935   0.00060  -0.00000   0.07109
  29        3PY         0.02065   0.00895  -0.00526   0.00000   0.01530
  30        3PZ        -0.00000   0.00000   0.00000  -0.00864   0.00000
  31        4S         -0.14427   0.03245   0.00093  -0.00000   0.06015
  32        4PX        -0.05004   0.03877   0.00011   0.00000   0.06994
  33        4PY         0.01874   0.01536  -0.00243   0.00000   0.02683
  34        4PZ        -0.00000   0.00000   0.00000  -0.00574   0.00000
  35 3   H  1S          0.04728  -0.00703  -0.01191  -0.02006  -0.01237
  36        2S          0.07926  -0.01333  -0.02382  -0.04050  -0.02355
  37        3S          0.01358  -0.00562  -0.01323  -0.02347  -0.00976
  38        4PX        -0.00244   0.00017   0.00105   0.00181   0.00028
  39        4PY        -0.00513   0.00087   0.00089   0.00252   0.00153
  40        4PZ        -0.00859   0.00159   0.00258   0.00375   0.00280
  41 4   H  1S          0.04587  -0.00714   0.02376   0.00000  -0.01257
  42        2S          0.08159  -0.01297   0.04826  -0.00000  -0.02300
  43        3S          0.02139   0.00033   0.02489   0.00000   0.00070
  44        4PX        -0.00200   0.00023  -0.00191   0.00000   0.00037
  45        4PY         0.01124  -0.00171   0.00541  -0.00000  -0.00304
  46        4PZ         0.00000  -0.00000  -0.00000  -0.00054  -0.00000
  47 5   H  1S          0.04728  -0.00703  -0.01191   0.02006  -0.01237
  48        2S          0.07926  -0.01333  -0.02382   0.04050  -0.02355
  49        3S          0.01358  -0.00562  -0.01323   0.02347  -0.00976
  50        4PX        -0.00244   0.00017   0.00105  -0.00181   0.00028
  51        4PY        -0.00513   0.00087   0.00089  -0.00252   0.00153
  52        4PZ         0.00859  -0.00159  -0.00258   0.00375  -0.00280
  53 6   H  1S          0.00550  -0.00644  -0.00078  -0.00000  -0.01176
  54        2S          0.02142  -0.01614   0.00056   0.00000  -0.02933
  55        3S          0.01019  -0.00428   0.00197   0.00000  -0.00787
  56        4PX         0.00212  -0.00076  -0.00023   0.00000  -0.00142
  57        4PY         0.00129   0.00291  -0.00052  -0.00000   0.00519
  58        4PZ        -0.00000   0.00000  -0.00000  -0.00062   0.00000
                          11        12        13        14        15
  11        8PY         0.98232
  12        8PZ         0.00000   0.98159
  13        9PX         0.00030   0.00000   0.06155
  14        9PY         0.03737  -0.00000   0.00032   0.07015
  15        9PZ        -0.00000   0.03836  -0.00000   0.00000   0.06855
  16       10PX         0.00209   0.00000   0.03620  -0.00211   0.00000
  17       10PY        -0.07465  -0.00000  -0.00614   0.08080   0.00000
  18       10PZ         0.00000  -0.07309  -0.00000  -0.00000   0.07881
  19       11PX         0.00351  -0.00000   0.01462  -0.00502  -0.00000
  20       11PY        -0.01360   0.00000  -0.01228   0.02266  -0.00000
  21       11PZ        -0.00000  -0.01135  -0.00000   0.00000   0.01884
  22 2   O  1S         -0.00109  -0.00000   0.01213   0.00110   0.00000
  23        2S         -0.00178  -0.00000   0.01938   0.00181   0.00000
  24        2PX         0.00053   0.00000  -0.07171  -0.00235  -0.00000
  25        2PY        -0.00602   0.00000  -0.01106   0.00338  -0.00000
  26        2PZ         0.00000  -0.01040  -0.00000  -0.00000   0.00832
  27        3S          0.00554   0.00000  -0.05028  -0.00573  -0.00000
  28        3PX         0.00134   0.00000  -0.10410  -0.00389  -0.00000
  29        3PY        -0.00951   0.00000  -0.01840   0.00618  -0.00000
  30        3PZ         0.00000  -0.01551  -0.00000  -0.00000   0.01299
  31        4S          0.00216  -0.00000  -0.08698   0.00064   0.00000
  32        4PX         0.00044   0.00000  -0.10217  -0.00435  -0.00000
  33        4PY        -0.00454   0.00000  -0.03647   0.00032   0.00000
  34        4PZ         0.00000  -0.01051  -0.00000  -0.00000   0.00567
  35 3   H  1S         -0.02078  -0.03499   0.01720   0.02892   0.04896
  36        2S         -0.04157  -0.07059   0.03338   0.05817   0.09975
  37        3S         -0.02300  -0.04080   0.01193   0.03176   0.05676
  38        4PX         0.00182   0.00316   0.00008  -0.00238  -0.00430
  39        4PY         0.00155   0.00438  -0.00209  -0.00172  -0.00605
  40        4PZ         0.00449   0.00652  -0.00390  -0.00613  -0.00866
  41 4   H  1S          0.04141   0.00000   0.01737  -0.05765  -0.00000
  42        2S          0.08408  -0.00000   0.03270  -0.11787  -0.00000
  43        3S          0.04333   0.00000  -0.00333  -0.05905  -0.00000
  44        4PX        -0.00332   0.00000  -0.00004   0.00453   0.00000
  45        4PY         0.00941  -0.00000   0.00422  -0.01253  -0.00000
  46        4PZ        -0.00000  -0.00095   0.00000  -0.00000   0.00166
  47 5   H  1S         -0.02078   0.03499   0.01720   0.02892  -0.04896
  48        2S         -0.04157   0.07059   0.03338   0.05817  -0.09975
  49        3S         -0.02300   0.04080   0.01193   0.03176  -0.05676
  50        4PX         0.00182  -0.00316   0.00008  -0.00238   0.00430
  51        4PY         0.00155  -0.00438  -0.00209  -0.00172   0.00605
  52        4PZ        -0.00449   0.00652   0.00390   0.00613  -0.00866
  53 6   H  1S         -0.00156  -0.00000   0.01970   0.00004  -0.00000
  54        2S          0.00070   0.00000   0.04436  -0.00405  -0.00000
  55        3S          0.00336   0.00000   0.01388  -0.00566  -0.00000
  56        4PX        -0.00044   0.00000   0.00228   0.00019  -0.00000
  57        4PY        -0.00089  -0.00000  -0.00783   0.00121   0.00000
  58        4PZ        -0.00000  -0.00112  -0.00000   0.00000   0.00074
                          16        17        18        19        20
  16       10PX         0.03302
  17       10PY        -0.00925   0.11277
  18       10PZ         0.00000  -0.00000   0.11234
  19       11PX         0.01029  -0.00687  -0.00000   0.00479
  20       11PY        -0.01461   0.03830  -0.00000  -0.00289   0.02468
  21       11PZ         0.00000   0.00000   0.03695  -0.00000  -0.00000
  22 2   O  1S         -0.00403   0.00268  -0.00000   0.00292   0.00691
  23        2S         -0.00575   0.00438  -0.00000   0.00471   0.01164
  24        2PX        -0.05166   0.00848   0.00000  -0.01658   0.02406
  25        2PY        -0.02056   0.03067  -0.00000   0.00324   0.04401
  26        2PZ         0.00000   0.00000   0.04717   0.00000  -0.00000
  27        3S          0.01798  -0.01452   0.00000  -0.01247  -0.03765
  28        3PX        -0.07347   0.01120   0.00000  -0.02403   0.03334
  29        3PY        -0.03014   0.04486  -0.00000   0.00364   0.06203
  30        3PZ         0.00000   0.00000   0.06771   0.00000  -0.00000
  31        4S         -0.01382  -0.01063   0.00000  -0.02568  -0.03511
  32        4PX        -0.07326   0.01353   0.00000  -0.02331   0.03575
  33        4PY        -0.04611   0.03945   0.00000  -0.00048   0.06731
  34        4PZ         0.00000   0.00000   0.06457   0.00000  -0.00000
  35 3   H  1S          0.01641   0.03630   0.06009   0.00387   0.00694
  36        2S          0.03075   0.07102   0.11718   0.00624   0.01090
  37        3S          0.01533   0.03390   0.05915  -0.00029  -0.00326
  38        4PX        -0.00015  -0.00328  -0.00536   0.00006  -0.00113
  39        4PY        -0.00189  -0.00214  -0.00681  -0.00059  -0.00030
  40        4PZ        -0.00363  -0.00722  -0.00982  -0.00070  -0.00070
  41 4   H  1S          0.01718  -0.07318  -0.00000   0.01180  -0.01778
  42        2S          0.02893  -0.14664   0.00000   0.02334  -0.03116
  43        3S         -0.00270  -0.06758  -0.00000   0.00717  -0.00465
  44        4PX        -0.00038   0.00562   0.00000  -0.00056   0.00113
  45        4PY         0.00341  -0.01519  -0.00000   0.00287  -0.00255
  46        4PZ         0.00000  -0.00000   0.00184   0.00000  -0.00000
  47 5   H  1S          0.01641   0.03630  -0.06009   0.00387   0.00694
  48        2S          0.03075   0.07102  -0.11718   0.00624   0.01090
  49        3S          0.01533   0.03390  -0.05915  -0.00029  -0.00326
  50        4PX        -0.00015  -0.00328   0.00536   0.00006  -0.00113
  51        4PY        -0.00189  -0.00214   0.00681  -0.00059  -0.00030
  52        4PZ         0.00363   0.00722  -0.00982   0.00070   0.00070
  53 6   H  1S          0.01464   0.00985   0.00000   0.00827   0.00955
  54        2S          0.02948   0.00402  -0.00000   0.01525   0.00611
  55        3S          0.00834  -0.00470  -0.00000   0.00505   0.00083
  56        4PX         0.00103   0.00291  -0.00000   0.00135   0.00359
  57        4PY        -0.00794   0.00288   0.00000  -0.00205   0.00458
  58        4PZ         0.00000   0.00000   0.00470  -0.00000  -0.00000
                          21        22        23        24        25
  21       11PZ         0.02712
  22 2   O  1S         -0.00000   0.63855
  23        2S         -0.00000   0.56717   0.52015
  24        2PX         0.00000   0.00267   0.00403   0.12718
  25        2PY        -0.00000   0.00981   0.01505   0.01529   0.14334
  26        2PZ         0.06341   0.00000   0.00000   0.00000  -0.00000
  27        3S          0.00000  -0.12696  -0.21375  -0.01939  -0.04422
  28        3PX         0.00000  -0.00058  -0.00050   0.18286   0.01977
  29        3PY        -0.00000   0.00952   0.01598   0.02479   0.19943
  30        3PZ         0.08905   0.00000   0.00000   0.00000  -0.00000
  31        4S          0.00000  -0.12963  -0.20313   0.04957  -0.09135
  32        4PX         0.00000  -0.00839  -0.01222   0.16470   0.04410
  33        4PY        -0.00000   0.01922   0.03170   0.06418   0.19793
  34        4PZ         0.09769   0.00000   0.00000   0.00000  -0.00000
  35 3   H  1S          0.00840   0.00124   0.00191  -0.01061  -0.00737
  36        2S          0.00833   0.00200   0.00340  -0.02582  -0.02264
  37        3S         -0.00818  -0.00873  -0.01384  -0.01779  -0.03788
  38        4PX        -0.00086   0.00013   0.00007  -0.00112  -0.00032
  39        4PY         0.00001  -0.00023  -0.00041   0.00146   0.00060
  40        4PZ        -0.00005  -0.00022  -0.00037   0.00318   0.00378
  41 4   H  1S         -0.00000   0.00332   0.00533  -0.00656   0.00744
  42        2S         -0.00000   0.00906   0.01485  -0.01523   0.03465
  43        3S         -0.00000   0.00338   0.00634   0.01758   0.04375
  44        4PX         0.00000   0.00014   0.00009  -0.00107  -0.00082
  45        4PY        -0.00000   0.00153   0.00255  -0.00184   0.00622
  46        4PZ         0.00000   0.00000   0.00000  -0.00000  -0.00000
  47 5   H  1S         -0.00840   0.00124   0.00191  -0.01061  -0.00737
  48        2S         -0.00833   0.00200   0.00340  -0.02582  -0.02264
  49        3S          0.00818  -0.00873  -0.01384  -0.01779  -0.03788
  50        4PX         0.00086   0.00013   0.00007  -0.00112  -0.00032
  51        4PY        -0.00001  -0.00023  -0.00041   0.00146   0.00060
  52        4PZ        -0.00005   0.00022   0.00037  -0.00318  -0.00378
  53 6   H  1S         -0.00000  -0.01675  -0.02659  -0.05305   0.07475
  54        2S         -0.00000  -0.01143  -0.01781  -0.09169   0.08676
  55        3S         -0.00000   0.00101   0.00116  -0.02416   0.02397
  56        4PX        -0.00000  -0.00201  -0.00286  -0.00638   0.01745
  57        4PY         0.00000   0.00753   0.01145   0.01892   0.00061
  58        4PZ         0.00646   0.00000   0.00000   0.00000  -0.00000
                          26        27        28        29        30
  26        2PZ         0.17353
  27        3S         -0.00000   0.64840
  28        3PX         0.00000  -0.01242   0.26330
  29        3PY        -0.00000  -0.05301   0.03276   0.27775
  30        3PZ         0.24276  -0.00000   0.00000  -0.00000   0.33964
  31        4S         -0.00000   0.56509   0.08515  -0.11735  -0.00000
  32        4PX         0.00000   0.01935   0.23745   0.06661   0.00000
  33        4PY        -0.00000  -0.10116   0.08847   0.27601  -0.00000
  34        4PZ         0.27251  -0.00000   0.00000  -0.00000   0.38106
  35 3   H  1S         -0.01146  -0.00451  -0.01496  -0.01009  -0.01493
  36        2S         -0.04819  -0.00855  -0.03668  -0.03123  -0.06515
  37        3S         -0.06408   0.04078  -0.02432  -0.05193  -0.08832
  38        4PX         0.00067   0.00034  -0.00162  -0.00053   0.00084
  39        4PY         0.00438   0.00122   0.00209   0.00087   0.00599
  40        4PZ         0.00612   0.00087   0.00451   0.00524   0.00837
  41 4   H  1S         -0.00000  -0.01448  -0.00898   0.00825  -0.00000
  42        2S          0.00000  -0.04211  -0.02166   0.04376   0.00000
  43        3S         -0.00000  -0.02258   0.02504   0.05947  -0.00000
  44        4PX        -0.00000   0.00019  -0.00158  -0.00104  -0.00000
  45        4PY        -0.00000  -0.00746  -0.00269   0.00812  -0.00000
  46        4PZ        -0.00118  -0.00000  -0.00000  -0.00000  -0.00161
  47 5   H  1S          0.01146  -0.00451  -0.01496  -0.01009   0.01493
  48        2S          0.04819  -0.00855  -0.03668  -0.03123   0.06515
  49        3S          0.06408   0.04078  -0.02432  -0.05193   0.08832
  50        4PX        -0.00067   0.00034  -0.00162  -0.00053  -0.00084
  51        4PY        -0.00438   0.00122   0.00209   0.00087  -0.00599
  52        4PZ         0.00612  -0.00087  -0.00451  -0.00524   0.00837
  53 6   H  1S          0.00000   0.07771  -0.07532   0.10356   0.00000
  54        2S          0.00000   0.05415  -0.13165   0.11865   0.00000
  55        3S          0.00000  -0.00057  -0.03499   0.03246   0.00000
  56        4PX         0.00000   0.00720  -0.00918   0.02420   0.00000
  57        4PY        -0.00000  -0.03204   0.02652   0.00098  -0.00000
  58        4PZ         0.01776  -0.00000   0.00000  -0.00000   0.02484
                          31        32        33        34        35
  31        4S          0.56183
  32        4PX         0.09540   0.22368
  33        4PY        -0.13589   0.11327   0.29029
  34        4PZ        -0.00000   0.00000  -0.00000   0.42885
  35 3   H  1S         -0.01337  -0.02171  -0.01557  -0.02403   0.07153
  36        2S         -0.02167  -0.04879  -0.04296  -0.08813   0.14226
  37        3S          0.04105  -0.03017  -0.06083  -0.10795   0.07766
  38        4PX         0.00005  -0.00111  -0.00064   0.00158  -0.00548
  39        4PY         0.00249   0.00272   0.00140   0.00764  -0.00801
  40        4PZ         0.00197   0.00603   0.00654   0.01071  -0.01383
  41 4   H  1S         -0.03779  -0.01250   0.01122  -0.00000  -0.00993
  42        2S         -0.09353  -0.02294   0.04914   0.00000  -0.02735
  43        3S         -0.04129   0.02796   0.06850  -0.00000  -0.02293
  44        4PX         0.00106  -0.00132  -0.00169  -0.00000   0.00134
  45        4PY        -0.01416  -0.00269   0.00866  -0.00000  -0.00238
  46        4PZ        -0.00000  -0.00000  -0.00000  -0.00206   0.00146
  47 5   H  1S         -0.01337  -0.02171  -0.01557   0.02403  -0.01044
  48        2S         -0.02167  -0.04879  -0.04296   0.08813  -0.02994
  49        3S          0.04105  -0.03017  -0.06083   0.10795  -0.02823
  50        4PX         0.00005  -0.00111  -0.00064  -0.00158   0.00166
  51        4PY         0.00249   0.00272   0.00140  -0.00764   0.00276
  52        4PZ        -0.00197  -0.00603  -0.00654   0.01071  -0.00159
  53 6   H  1S          0.00347  -0.04721   0.07723   0.00000  -0.00085
  54        2S         -0.04551  -0.09663   0.08175   0.00000   0.00053
  55        3S         -0.02641  -0.02664   0.02408   0.00000  -0.00108
  56        4PX        -0.00518  -0.00425   0.02063   0.00000  -0.00033
  57        4PY        -0.01674   0.02179   0.00886  -0.00000  -0.00062
  58        4PZ        -0.00000   0.00000  -0.00000   0.02790  -0.00125
                          36        37        38        39        40
  36        2S          0.28949
  37        3S          0.16764   0.11558
  38        4PX        -0.01091  -0.00595   0.00047
  39        4PY        -0.01645  -0.00965   0.00061   0.00100
  40        4PZ        -0.02831  -0.01675   0.00103   0.00160   0.00282
  41 4   H  1S         -0.02637  -0.02479   0.00134  -0.00021   0.00276
  42        2S         -0.06665  -0.05875   0.00310   0.00025   0.00720
  43        3S         -0.05193  -0.04102   0.00165   0.00114   0.00592
  44        4PX         0.00309   0.00230  -0.00011  -0.00005  -0.00033
  45        4PY        -0.00638  -0.00675   0.00030  -0.00004   0.00071
  46        4PZ         0.00317   0.00210  -0.00013  -0.00020  -0.00029
  47 5   H  1S         -0.02994  -0.02823   0.00166   0.00276   0.00159
  48        2S         -0.07912  -0.06879   0.00400   0.00698   0.00521
  49        3S         -0.06879  -0.04975   0.00309   0.00592   0.00547
  50        4PX         0.00400   0.00309  -0.00016  -0.00032  -0.00030
  51        4PY         0.00698   0.00592  -0.00032  -0.00051  -0.00056
  52        4PZ        -0.00521  -0.00547   0.00030   0.00056   0.00026
  53 6   H  1S         -0.00452  -0.01000   0.00044  -0.00012   0.00112
  54        2S         -0.00156  -0.01221   0.00090  -0.00054   0.00080
  55        3S         -0.00319  -0.00621   0.00037  -0.00013   0.00050
  56        4PX        -0.00151  -0.00326   0.00003  -0.00000   0.00032
  57        4PY        -0.00168  -0.00285  -0.00021   0.00011   0.00021
  58        4PZ        -0.00510  -0.00665   0.00008   0.00046   0.00064
                          41        42        43        44        45
  41 4   H  1S          0.07161
  42        2S          0.14204   0.28670
  43        3S          0.06521   0.13646   0.07610
  44        4PX        -0.00506  -0.01013  -0.00510   0.00039
  45        4PY         0.01609   0.03264   0.01569  -0.00113   0.00378
  46        4PZ         0.00000   0.00000   0.00000  -0.00000   0.00000
  47 5   H  1S         -0.00993  -0.02735  -0.02293   0.00134  -0.00238
  48        2S         -0.02637  -0.06665  -0.05193   0.00309  -0.00638
  49        3S         -0.02479  -0.05875  -0.04102   0.00230  -0.00675
  50        4PX         0.00134   0.00310   0.00165  -0.00011   0.00030
  51        4PY        -0.00021   0.00025   0.00114  -0.00005  -0.00004
  52        4PZ        -0.00276  -0.00720  -0.00592   0.00033  -0.00071
  53 6   H  1S          0.00811   0.02742   0.01784  -0.00017   0.00416
  54        2S          0.01760   0.04962   0.02334  -0.00036   0.00703
  55        3S          0.01022   0.02452   0.01159  -0.00048   0.00318
  56        4PX         0.00165   0.00579   0.00475  -0.00007   0.00092
  57        4PY        -0.00183  -0.00390   0.00113  -0.00004  -0.00038
  58        4PZ        -0.00000  -0.00000  -0.00000  -0.00000  -0.00000
                          46        47        48        49        50
  46        4PZ         0.00006
  47 5   H  1S         -0.00146   0.07153
  48        2S         -0.00317   0.14226   0.28949
  49        3S         -0.00210   0.07766   0.16764   0.11558
  50        4PX         0.00013  -0.00548  -0.01091  -0.00595   0.00047
  51        4PY         0.00020  -0.00801  -0.01645  -0.00965   0.00061
  52        4PZ        -0.00029   0.01383   0.02831   0.01675  -0.00103
  53 6   H  1S         -0.00000  -0.00085  -0.00452  -0.01000   0.00044
  54        2S         -0.00000   0.00053  -0.00156  -0.01221   0.00090
  55        3S         -0.00000  -0.00108  -0.00319  -0.00621   0.00037
  56        4PX        -0.00000  -0.00033  -0.00151  -0.00326   0.00003
  57        4PY         0.00000  -0.00062  -0.00168  -0.00285  -0.00021
  58        4PZ        -0.00012   0.00125   0.00510   0.00665  -0.00008
                          51        52        53        54        55
  51        4PY         0.00100
  52        4PZ        -0.00160   0.00282
  53 6   H  1S         -0.00012  -0.00112   0.08260
  54        2S         -0.00054  -0.00080   0.10487   0.14231
  55        3S         -0.00013  -0.00050   0.02631   0.03733   0.01054
  56        4PX        -0.00000  -0.00032   0.01484   0.01852   0.00479
  57        4PY         0.00011  -0.00021  -0.01329  -0.01821  -0.00424
  58        4PZ        -0.00046   0.00064  -0.00000  -0.00000  -0.00000
                          56        57        58
  56        4PX         0.00288
  57        4PY        -0.00172   0.00426
  58        4PZ        -0.00000   0.00000   0.00182
    Full Mulliken population analysis:
                           1         2         3         4         5
   1 1   Si 1S          0.37763
   2        2S          0.45187   1.03255
   3        3S         -0.02668  -0.18673   0.63319
   4        4S         -0.01636  -0.12251   0.59237   0.80848
   5        5S          0.00050   0.00424  -0.03898  -0.13546   0.56528
   6        6S          0.00026   0.00222  -0.01840  -0.05167   0.17810
   7        7PX         0.00000   0.00000   0.00000   0.00000   0.00000
   8        7PY         0.00000   0.00000   0.00000   0.00000   0.00000
   9        7PZ         0.00000   0.00000   0.00000   0.00000   0.00000
  10        8PX         0.00000   0.00000   0.00000   0.00000   0.00000
  11        8PY         0.00000   0.00000   0.00000   0.00000   0.00000
  12        8PZ         0.00000   0.00000   0.00000   0.00000   0.00000
  13        9PX         0.00000   0.00000   0.00000   0.00000   0.00000
  14        9PY         0.00000   0.00000   0.00000   0.00000   0.00000
  15        9PZ         0.00000   0.00000   0.00000   0.00000   0.00000
  16       10PX         0.00000   0.00000   0.00000   0.00000   0.00000
  17       10PY         0.00000   0.00000   0.00000   0.00000   0.00000
  18       10PZ         0.00000   0.00000   0.00000   0.00000   0.00000
  19       11PX         0.00000   0.00000   0.00000   0.00000   0.00000
  20       11PY         0.00000   0.00000   0.00000   0.00000   0.00000
  21       11PZ         0.00000   0.00000   0.00000   0.00000   0.00000
  22 2   O  1S         -0.00000  -0.00000   0.00000   0.00000  -0.00008
  23        2S          0.00000   0.00000  -0.00000   0.00000  -0.00012
  24        2PX         0.00000   0.00000  -0.00000  -0.00000   0.00245
  25        2PY         0.00000   0.00000  -0.00000  -0.00000   0.00003
  26        2PZ         0.00000   0.00000  -0.00000   0.00000   0.00000
  27        3S          0.00000   0.00000  -0.00000  -0.00003   0.00198
  28        3PX         0.00000   0.00000  -0.00005  -0.00065   0.01688
  29        3PY         0.00000   0.00000  -0.00000  -0.00001   0.00023
  30        3PZ         0.00000   0.00000  -0.00000   0.00000   0.00000
  31        4S          0.00000   0.00000   0.00004  -0.00009   0.00174
  32        4PX         0.00003   0.00024  -0.00211  -0.00750   0.03886
  33        4PY         0.00000   0.00001  -0.00010  -0.00032   0.00153
  34        4PZ         0.00000   0.00000  -0.00000  -0.00000   0.00000
  35 3   H  1S          0.00000   0.00000  -0.00002  -0.00023   0.00952
  36        2S          0.00002   0.00018  -0.00167  -0.00598   0.03954
  37        3S         -0.00000  -0.00001  -0.00003  -0.00087   0.01285
  38        4PX         0.00000   0.00000  -0.00001  -0.00007   0.00044
  39        4PY         0.00000   0.00000  -0.00003  -0.00014   0.00087
  40        4PZ         0.00000   0.00001  -0.00008  -0.00039   0.00236
  41 4   H  1S          0.00000   0.00000  -0.00002  -0.00026   0.01061
  42        2S          0.00002   0.00020  -0.00190  -0.00678   0.04636
  43        3S          0.00001   0.00009  -0.00087  -0.00354   0.02880
  44        4PX         0.00000   0.00000  -0.00001  -0.00007   0.00043
  45        4PY         0.00000   0.00001  -0.00013  -0.00065   0.00396
  46        4PZ        -0.00000  -0.00000   0.00000   0.00000  -0.00000
  47 5   H  1S          0.00000   0.00000  -0.00002  -0.00023   0.00952
  48        2S          0.00002   0.00018  -0.00167  -0.00598   0.03954
  49        3S         -0.00000  -0.00001  -0.00003  -0.00087   0.01285
  50        4PX         0.00000   0.00000  -0.00001  -0.00007   0.00044
  51        4PY         0.00000   0.00000  -0.00003  -0.00014   0.00087
  52        4PZ         0.00000   0.00001  -0.00008  -0.00039   0.00236
  53 6   H  1S         -0.00000  -0.00000   0.00000   0.00000  -0.00024
  54        2S         -0.00000  -0.00000   0.00001   0.00007  -0.00278
  55        3S         -0.00000  -0.00001   0.00008   0.00029  -0.00183
  56        4PX        -0.00000  -0.00000   0.00000   0.00000  -0.00007
  57        4PY        -0.00000  -0.00000   0.00000   0.00000  -0.00010
  58        4PZ        -0.00000  -0.00000   0.00000   0.00000  -0.00000
                           6         7         8         9        10
   6        6S          0.14564
   7        7PX         0.00000   0.33424
   8        7PY         0.00000   0.00000   0.33755
   9        7PZ         0.00000   0.00000   0.00000   0.33725
  10        8PX         0.00000   0.32111   0.00000   0.00000   0.97502
  11        8PY         0.00000   0.00000   0.32392   0.00000   0.00000
  12        8PZ         0.00000   0.00000   0.00000   0.32365   0.00000
  13        9PX         0.00000   0.00309   0.00000   0.00000   0.02468
  14        9PY         0.00000   0.00000   0.00245   0.00000   0.00000
  15        9PZ         0.00000   0.00000   0.00000   0.00251   0.00000
  16       10PX         0.00000  -0.00081   0.00000   0.00000  -0.00909
  17       10PY         0.00000   0.00000  -0.00145   0.00000   0.00000
  18       10PZ         0.00000   0.00000   0.00000  -0.00142   0.00000
  19       11PX         0.00000  -0.00002   0.00000   0.00000  -0.00034
  20       11PY         0.00000   0.00000  -0.00007   0.00000   0.00000
  21       11PZ         0.00000   0.00000   0.00000  -0.00006   0.00000
  22 2   O  1S          0.00081   0.00000   0.00000   0.00000   0.00000
  23        2S          0.00130  -0.00000  -0.00000  -0.00000   0.00000
  24        2PX        -0.00055  -0.00000  -0.00000  -0.00000  -0.00001
  25        2PY         0.00003  -0.00000  -0.00000  -0.00000  -0.00000
  26        2PZ        -0.00000  -0.00000  -0.00000  -0.00000  -0.00000
  27        3S         -0.02026  -0.00000  -0.00000  -0.00000  -0.00015
  28        3PX        -0.00358  -0.00002  -0.00000   0.00000  -0.00103
  29        3PY         0.00017  -0.00000  -0.00000  -0.00000  -0.00002
  30        3PZ        -0.00000  -0.00000  -0.00000  -0.00000  -0.00000
  31        4S         -0.05819  -0.00019  -0.00000   0.00000  -0.00272
  32        4PX        -0.01783  -0.00058  -0.00000  -0.00000  -0.00715
  33        4PY         0.00052  -0.00002  -0.00001  -0.00000  -0.00027
  34        4PZ        -0.00000  -0.00000  -0.00000  -0.00002  -0.00000
  35 3   H  1S          0.00842  -0.00000  -0.00000  -0.00000  -0.00003
  36        2S          0.03408  -0.00004  -0.00010  -0.00029  -0.00054
  37        3S          0.00923  -0.00001  -0.00004  -0.00013  -0.00016
  38        4PX         0.00012  -0.00000  -0.00000  -0.00000   0.00000
  39        4PY         0.00035  -0.00000  -0.00000  -0.00001  -0.00002
  40        4PZ         0.00098  -0.00000  -0.00001  -0.00002  -0.00007
  41 4   H  1S          0.00825  -0.00000  -0.00000   0.00000  -0.00004
  42        2S          0.03535  -0.00004  -0.00041  -0.00000  -0.00053
  43        3S          0.01461   0.00000  -0.00016   0.00000   0.00001
  44        4PX         0.00009  -0.00000  -0.00000  -0.00000   0.00000
  45        4PY         0.00149  -0.00000  -0.00004  -0.00000  -0.00009
  46        4PZ        -0.00000   0.00000  -0.00000  -0.00000   0.00000
  47 5   H  1S          0.00842  -0.00000  -0.00000  -0.00000  -0.00003
  48        2S          0.03408  -0.00004  -0.00010  -0.00029  -0.00054
  49        3S          0.00923  -0.00001  -0.00004  -0.00013  -0.00016
  50        4PX         0.00012  -0.00000  -0.00000  -0.00000   0.00000
  51        4PY         0.00035  -0.00000  -0.00000  -0.00001  -0.00002
  52        4PZ         0.00098  -0.00000  -0.00001  -0.00002  -0.00007
  53 6   H  1S          0.00033   0.00000  -0.00000  -0.00000   0.00000
  54        2S          0.00374   0.00000   0.00000   0.00000   0.00010
  55        3S          0.00378   0.00001   0.00000   0.00000   0.00018
  56        4PX         0.00016   0.00000  -0.00000   0.00000   0.00000
  57        4PY        -0.00003   0.00000   0.00000   0.00000   0.00000
  58        4PZ         0.00000   0.00000   0.00000  -0.00000   0.00000
                          11        12        13        14        15
  11        8PY         0.98232
  12        8PZ         0.00000   0.98159
  13        9PX         0.00000   0.00000   0.06155
  14        9PY         0.01982   0.00000   0.00000   0.07015
  15        9PZ         0.00000   0.02034   0.00000   0.00000   0.06855
  16       10PX         0.00000   0.00000   0.02686   0.00000   0.00000
  17       10PY        -0.01619   0.00000   0.00000   0.05994   0.00000
  18       10PZ         0.00000  -0.01586   0.00000   0.00000   0.05847
  19       11PX         0.00000   0.00000   0.00474   0.00000   0.00000
  20       11PY        -0.00093   0.00000   0.00000   0.00735   0.00000
  21       11PZ         0.00000  -0.00078   0.00000   0.00000   0.00611
  22 2   O  1S          0.00000   0.00000  -0.00009  -0.00000  -0.00000
  23        2S          0.00000   0.00000  -0.00014  -0.00000  -0.00000
  24        2PX        -0.00000  -0.00000   0.00230   0.00001   0.00000
  25        2PY        -0.00000  -0.00000   0.00003   0.00001   0.00000
  26        2PZ        -0.00000  -0.00000   0.00000   0.00000   0.00003
  27        3S         -0.00000  -0.00000   0.00452   0.00004   0.00000
  28        3PX        -0.00000  -0.00000   0.01766   0.00006   0.00000
  29        3PY        -0.00001  -0.00000   0.00028   0.00017   0.00000
  30        3PZ        -0.00000  -0.00002   0.00000   0.00000   0.00038
  31        4S         -0.00001   0.00000   0.02054  -0.00001  -0.00000
  32        4PX        -0.00000  -0.00000   0.03781   0.00017   0.00000
  33        4PY        -0.00012  -0.00000   0.00146   0.00004  -0.00000
  34        4PZ        -0.00000  -0.00029   0.00000   0.00000   0.00082
  35 3   H  1S         -0.00008  -0.00024   0.00082   0.00196   0.00558
  36        2S         -0.00135  -0.00385   0.00362   0.00894   0.02574
  37        3S         -0.00053  -0.00158   0.00091   0.00342   0.01026
  38        4PX        -0.00003  -0.00007   0.00000   0.00016   0.00050
  39        4PY        -0.00001  -0.00014   0.00015   0.00001   0.00100
  40        4PZ        -0.00015  -0.00029   0.00045   0.00101   0.00162
  41 4   H  1S         -0.00035   0.00000   0.00085   0.00790  -0.00000
  42        2S         -0.00546  -0.00000   0.00355   0.03595  -0.00000
  43        3S         -0.00196   0.00000  -0.00025   0.01247  -0.00000
  44        4PX        -0.00009  -0.00000  -0.00000   0.00062  -0.00000
  45        4PY        -0.00064  -0.00000   0.00057   0.00364  -0.00000
  46        4PZ        -0.00000  -0.00001  -0.00000  -0.00000   0.00015
  47 5   H  1S         -0.00008  -0.00024   0.00082   0.00196   0.00558
  48        2S         -0.00135  -0.00385   0.00362   0.00894   0.02574
  49        3S         -0.00053  -0.00158   0.00091   0.00342   0.01026
  50        4PX        -0.00003  -0.00007   0.00000   0.00016   0.00050
  51        4PY        -0.00001  -0.00014   0.00015   0.00001   0.00100
  52        4PZ        -0.00015  -0.00029   0.00045   0.00101   0.00162
  53 6   H  1S         -0.00000  -0.00000  -0.00005   0.00000  -0.00000
  54        2S          0.00000   0.00000  -0.00191  -0.00005  -0.00000
  55        3S          0.00002   0.00000  -0.00168  -0.00019  -0.00000
  56        4PX        -0.00000   0.00000  -0.00005   0.00000  -0.00000
  57        4PY         0.00000   0.00000  -0.00005   0.00000  -0.00000
  58        4PZ         0.00000  -0.00000  -0.00000  -0.00000   0.00000
                          16        17        18        19        20
  16       10PX         0.03302
  17       10PY         0.00000   0.11277
  18       10PZ         0.00000   0.00000   0.11234
  19       11PX         0.00742   0.00000   0.00000   0.00479
  20       11PY         0.00000   0.02760   0.00000   0.00000   0.02468
  21       11PZ         0.00000   0.00000   0.02663   0.00000   0.00000
  22 2   O  1S          0.00021  -0.00001   0.00000  -0.00014  -0.00003
  23        2S          0.00031  -0.00002   0.00000  -0.00025  -0.00005
  24        2PX         0.00304  -0.00005  -0.00000   0.00012  -0.00005
  25        2PY         0.00013   0.00066   0.00000  -0.00001   0.00093
  26        2PZ        -0.00000  -0.00000   0.00103  -0.00000   0.00000
  27        3S         -0.00531   0.00033  -0.00000   0.00359   0.00084
  28        3PX         0.01582  -0.00027  -0.00000   0.00064  -0.00031
  29        3PY         0.00073   0.00421   0.00000  -0.00003   0.00574
  30        3PZ        -0.00000  -0.00000   0.00648  -0.00000   0.00000
  31        4S          0.00702   0.00042  -0.00000   0.01414   0.00150
  32        4PX         0.02876  -0.00074  -0.00000   0.00075  -0.00102
  33        4PY         0.00252   0.01206  -0.00000   0.00001   0.02245
  34        4PZ        -0.00000  -0.00000   0.02002  -0.00000   0.00000
  35 3   H  1S          0.00176   0.00550   0.01530   0.00031   0.00078
  36        2S          0.00599   0.01960   0.05430   0.00106   0.00263
  37        3S          0.00249   0.00781   0.02289  -0.00006  -0.00097
  38        4PX        -0.00002   0.00022   0.00061   0.00001   0.00002
  39        4PY         0.00013  -0.00017   0.00110   0.00001  -0.00003
  40        4PZ         0.00041   0.00116   0.00092   0.00002   0.00003
  41 4   H  1S          0.00183   0.02194  -0.00000   0.00092   0.00389
  42        2S          0.00559   0.07967   0.00000   0.00392   0.01471
  43        3S         -0.00043   0.03049  -0.00000   0.00148   0.00269
  44        4PX        -0.00005   0.00074  -0.00000  -0.00007   0.00005
  45        4PY         0.00045   0.00286  -0.00000   0.00012  -0.00006
  46        4PZ        -0.00000  -0.00000   0.00033  -0.00000  -0.00000
  47 5   H  1S          0.00176   0.00550   0.01530   0.00031   0.00078
  48        2S          0.00599   0.01960   0.05430   0.00106   0.00263
  49        3S          0.00249   0.00781   0.02289  -0.00006  -0.00097
  50        4PX        -0.00002   0.00022   0.00061   0.00001   0.00002
  51        4PY         0.00013  -0.00017   0.00110   0.00001  -0.00003
  52        4PZ         0.00041   0.00116   0.00092   0.00002   0.00003
  53 6   H  1S         -0.00097   0.00018   0.00000  -0.00138   0.00044
  54        2S         -0.00606   0.00023  -0.00000  -0.00604   0.00067
  55        3S         -0.00273  -0.00043  -0.00000  -0.00294   0.00013
  56        4PX        -0.00013   0.00013  -0.00000  -0.00011   0.00015
  57        4PY        -0.00035   0.00005  -0.00000  -0.00008   0.00024
  58        4PZ         0.00000  -0.00000   0.00013  -0.00000   0.00000
                          21        22        23        24        25
  21       11PZ         0.02712
  22 2   O  1S          0.00000   0.63855
  23        2S          0.00000   0.51158   0.52015
  24        2PX        -0.00000   0.00000   0.00000   0.12718
  25        2PY         0.00000   0.00000   0.00000   0.00000   0.14334
  26        2PZ         0.00134   0.00000   0.00000   0.00000   0.00000
  27        3S         -0.00000  -0.04475  -0.08582   0.00000   0.00000
  28        3PX        -0.00000   0.00000   0.00000   0.11191   0.00000
  29        3PY         0.00000   0.00000   0.00000   0.00000   0.12205
  30        3PZ         0.00831   0.00000   0.00000   0.00000   0.00000
  31        4S         -0.00000  -0.02047  -0.03459   0.00000   0.00000
  32        4PX        -0.00000   0.00000   0.00000   0.03248   0.00000
  33        4PY         0.00000   0.00000   0.00000   0.00000   0.03903
  34        4PZ         0.03280   0.00000   0.00000   0.00000   0.00000
  35 3   H  1S          0.00158   0.00000  -0.00000  -0.00000  -0.00000
  36        2S          0.00338   0.00000   0.00000  -0.00001  -0.00000
  37        3S         -0.00407  -0.00006  -0.00009  -0.00014  -0.00011
  38        4PX         0.00003  -0.00000  -0.00000   0.00000   0.00000
  39        4PY        -0.00000   0.00000   0.00000  -0.00000  -0.00000
  40        4PZ        -0.00000   0.00000   0.00000  -0.00000  -0.00000
  41 4   H  1S         -0.00000   0.00000   0.00000  -0.00000  -0.00000
  42        2S         -0.00000   0.00000   0.00000  -0.00001  -0.00001
  43        3S         -0.00000   0.00003   0.00005   0.00017  -0.00024
  44        4PX        -0.00000  -0.00000  -0.00000   0.00000  -0.00000
  45        4PY        -0.00000   0.00000   0.00000  -0.00000  -0.00000
  46        4PZ         0.00000  -0.00000  -0.00000   0.00000  -0.00000
  47 5   H  1S          0.00158   0.00000  -0.00000  -0.00000  -0.00000
  48        2S          0.00338   0.00000   0.00000  -0.00001  -0.00000
  49        3S         -0.00407  -0.00006  -0.00009  -0.00014  -0.00011
  50        4PX         0.00003  -0.00000  -0.00000   0.00000   0.00000
  51        4PY        -0.00000   0.00000   0.00000  -0.00000  -0.00000
  52        4PZ        -0.00000   0.00000   0.00000  -0.00000  -0.00000
  53 6   H  1S         -0.00000  -0.00024  -0.00035   0.00242   0.00458
  54        2S         -0.00000  -0.00077  -0.00128   0.00545   0.00694
  55        3S         -0.00000   0.00006   0.00007   0.00043   0.00057
  56        4PX        -0.00000  -0.00012  -0.00018   0.00019   0.00244
  57        4PY        -0.00000  -0.00059  -0.00096   0.00264  -0.00007
  58        4PZ         0.00042  -0.00000  -0.00000   0.00000   0.00000
                          26        27        28        29        30
  26        2PZ         0.17353
  27        3S          0.00000   0.64840
  28        3PX         0.00000   0.00000   0.26330
  29        3PY         0.00000   0.00000   0.00000   0.27775
  30        3PZ         0.14857   0.00000   0.00000   0.00000   0.33964
  31        4S          0.00000   0.42625   0.00000   0.00000   0.00000
  32        4PX         0.00000   0.00000   0.14842   0.00000   0.00000
  33        4PY         0.00000   0.00000   0.00000   0.17253   0.00000
  34        4PZ         0.05374   0.00000   0.00000   0.00000   0.23818
  35 3   H  1S         -0.00000  -0.00000  -0.00000  -0.00000  -0.00000
  36        2S         -0.00001  -0.00002  -0.00015  -0.00005  -0.00014
  37        3S         -0.00027   0.00187  -0.00091  -0.00074  -0.00177
  38        4PX        -0.00000  -0.00000   0.00000   0.00000  -0.00000
  39        4PY        -0.00000  -0.00000  -0.00000  -0.00000  -0.00000
  40        4PZ        -0.00000  -0.00000  -0.00000  -0.00000  -0.00000
  41 4   H  1S         -0.00000  -0.00000  -0.00000  -0.00000  -0.00000
  42        2S          0.00000  -0.00014  -0.00015  -0.00017   0.00000
  43        3S         -0.00000  -0.00127   0.00114  -0.00153  -0.00000
  44        4PX         0.00000  -0.00000   0.00000  -0.00000   0.00000
  45        4PY        -0.00000  -0.00000  -0.00000  -0.00000  -0.00000
  46        4PZ        -0.00000   0.00000   0.00000  -0.00000  -0.00000
  47 5   H  1S         -0.00000  -0.00000  -0.00000  -0.00000  -0.00000
  48        2S         -0.00001  -0.00002  -0.00015  -0.00005  -0.00014
  49        3S         -0.00027   0.00187  -0.00091  -0.00074  -0.00177
  50        4PX        -0.00000  -0.00000   0.00000   0.00000  -0.00000
  51        4PY        -0.00000  -0.00000  -0.00000  -0.00000  -0.00000
  52        4PZ        -0.00000  -0.00000  -0.00000  -0.00000  -0.00000
  53 6   H  1S          0.00000   0.01304   0.01503   0.02780   0.00000
  54        2S          0.00000   0.02040   0.02703   0.03276   0.00000
  55        3S          0.00000  -0.00020   0.00255   0.00318   0.00000
  56        4PX         0.00000   0.00190  -0.00009   0.00802   0.00000
  57        4PY         0.00000   0.01138   0.00879  -0.00019   0.00000
  58        4PZ         0.00131   0.00000   0.00000   0.00000   0.00637
                          31        32        33        34        35
  31        4S          0.56183
  32        4PX         0.00000   0.22368
  33        4PY         0.00000   0.00000   0.29029
  34        4PZ         0.00000   0.00000   0.00000   0.42885
  35 3   H  1S         -0.00004  -0.00023  -0.00006  -0.00014   0.07153
  36        2S         -0.00058  -0.00308  -0.00103  -0.00300   0.10049
  37        3S          0.00555  -0.00496  -0.00381  -0.00957   0.02902
  38        4PX        -0.00000   0.00004   0.00001  -0.00003   0.00000
  39        4PY        -0.00001  -0.00004   0.00000  -0.00006   0.00000
  40        4PZ        -0.00001  -0.00013  -0.00005  -0.00006   0.00000
  41 4   H  1S         -0.00018  -0.00021  -0.00011  -0.00000  -0.00000
  42        2S         -0.00342  -0.00198  -0.00241   0.00000  -0.00009
  43        3S         -0.00657   0.00538  -0.00748  -0.00000  -0.00119
  44        4PX        -0.00002   0.00007  -0.00006   0.00000   0.00000
  45        4PY        -0.00015  -0.00009  -0.00009  -0.00000  -0.00000
  46        4PZ         0.00000   0.00000  -0.00000  -0.00002   0.00000
  47 5   H  1S         -0.00004  -0.00023  -0.00006  -0.00014  -0.00000
  48        2S         -0.00058  -0.00308  -0.00103  -0.00300  -0.00011
  49        3S          0.00555  -0.00496  -0.00381  -0.00957  -0.00152
  50        4PX        -0.00000   0.00004   0.00001  -0.00003  -0.00000
  51        4PY        -0.00001  -0.00004   0.00000  -0.00006  -0.00000
  52        4PZ        -0.00001  -0.00013  -0.00005  -0.00006  -0.00000
  53 6   H  1S          0.00109   0.01344   0.02957   0.00000  -0.00000
  54        2S         -0.02810   0.03659   0.04163   0.00000   0.00000
  55        3S         -0.01785   0.00565   0.00687   0.00000  -0.00002
  56        4PX        -0.00107  -0.00089   0.00468   0.00000  -0.00000
  57        4PY         0.00466   0.00495   0.00065   0.00000  -0.00000
  58        4PZ         0.00000   0.00000   0.00000   0.01055  -0.00000
                          36        37        38        39        40
  36        2S          0.28949
  37        3S          0.13226   0.11558
  38        4PX         0.00000   0.00000   0.00047
  39        4PY         0.00000   0.00000   0.00000   0.00100
  40        4PZ         0.00000   0.00000   0.00000   0.00000   0.00282
  41 4   H  1S         -0.00009  -0.00128  -0.00000   0.00000  -0.00000
  42        2S         -0.00224  -0.00910  -0.00000  -0.00000  -0.00007
  43        3S         -0.00805  -0.01406  -0.00000  -0.00008  -0.00022
  44        4PX         0.00000   0.00000  -0.00000   0.00000   0.00000
  45        4PY        -0.00010  -0.00045  -0.00000   0.00000  -0.00000
  46        4PZ         0.00003   0.00008   0.00000   0.00000   0.00000
  47 5   H  1S         -0.00011  -0.00152   0.00000   0.00000  -0.00000
  48        2S         -0.00283  -0.01099   0.00000   0.00000  -0.00010
  49        3S         -0.01099  -0.01740   0.00000   0.00000  -0.00043
  50        4PX        -0.00000  -0.00000  -0.00000   0.00000  -0.00000
  51        4PY        -0.00000  -0.00000   0.00000  -0.00000  -0.00000
  52        4PZ        -0.00010  -0.00043   0.00000   0.00000  -0.00000
  53 6   H  1S         -0.00000  -0.00016  -0.00000   0.00000  -0.00000
  54        2S         -0.00001  -0.00073  -0.00000   0.00000  -0.00000
  55        3S         -0.00019  -0.00114  -0.00001   0.00000  -0.00001
  56        4PX        -0.00000  -0.00010  -0.00000   0.00000  -0.00000
  57        4PY        -0.00000  -0.00000   0.00000   0.00000  -0.00000
  58        4PZ        -0.00000  -0.00008  -0.00000  -0.00000  -0.00000
                          41        42        43        44        45
  41 4   H  1S          0.07161
  42        2S          0.10033   0.28670
  43        3S          0.02437   0.10766   0.07610
  44        4PX         0.00000   0.00000   0.00000   0.00039
  45        4PY         0.00000   0.00000   0.00000   0.00000   0.00378
  46        4PZ         0.00000   0.00000   0.00000   0.00000   0.00000
  47 5   H  1S         -0.00000  -0.00009  -0.00119   0.00000  -0.00000
  48        2S         -0.00009  -0.00224  -0.00805   0.00000  -0.00010
  49        3S         -0.00128  -0.00910  -0.01406   0.00000  -0.00045
  50        4PX        -0.00000  -0.00000  -0.00000  -0.00000  -0.00000
  51        4PY         0.00000  -0.00000  -0.00008   0.00000   0.00000
  52        4PZ        -0.00000  -0.00007  -0.00022   0.00000  -0.00000
  53 6   H  1S          0.00000   0.00000   0.00012   0.00000   0.00000
  54        2S          0.00000   0.00005   0.00068   0.00000   0.00000
  55        3S          0.00007   0.00071   0.00132   0.00001   0.00003
  56        4PX         0.00000   0.00000   0.00006   0.00000   0.00000
  57        4PY         0.00000   0.00000  -0.00001  -0.00000   0.00000
  58        4PZ         0.00000   0.00000   0.00000  -0.00000   0.00000
                          46        47        48        49        50
  46        4PZ         0.00006
  47 5   H  1S          0.00000   0.07153
  48        2S          0.00003   0.10049   0.28949
  49        3S          0.00008   0.02902   0.13226   0.11558
  50        4PX         0.00000   0.00000   0.00000   0.00000   0.00047
  51        4PY         0.00000   0.00000   0.00000   0.00000   0.00000
  52        4PZ         0.00000   0.00000   0.00000   0.00000   0.00000
  53 6   H  1S         -0.00000  -0.00000  -0.00000  -0.00016  -0.00000
  54        2S         -0.00000   0.00000  -0.00001  -0.00073  -0.00000
  55        3S         -0.00000  -0.00002  -0.00019  -0.00114  -0.00001
  56        4PX        -0.00000  -0.00000  -0.00000  -0.00010  -0.00000
  57        4PY        -0.00000  -0.00000  -0.00000  -0.00000   0.00000
  58        4PZ        -0.00000  -0.00000  -0.00000  -0.00008  -0.00000
                          51        52        53        54        55
  51        4PY         0.00100
  52        4PZ         0.00000   0.00282
  53 6   H  1S          0.00000  -0.00000   0.08260
  54        2S          0.00000  -0.00000   0.07408   0.14231
  55        3S          0.00000  -0.00001   0.00983   0.02945   0.01054
  56        4PX         0.00000  -0.00000   0.00000   0.00000   0.00000
  57        4PY         0.00000  -0.00000   0.00000   0.00000   0.00000
  58        4PZ        -0.00000  -0.00000   0.00000   0.00000   0.00000
                          56        57        58
  56        4PX         0.00288
  57        4PY         0.00000   0.00426
  58        4PZ         0.00000   0.00000   0.00182
     Gross orbital populations:
                           1
   1 1   Si 1S          0.78732
   2        2S          1.18254
   3        3S          0.94603
   4        4S          1.03991
   5        5S          0.85348
   6        6S          0.33269
   7        7PX         0.65666
   8        7PY         0.66146
   9        7PZ         0.66102
  10        8PX         1.29803
  11        8PY         1.29600
  12        8PZ         1.29627
  13        9PX         0.21817
  14        9PY         0.25156
  15        9PZ         0.24676
  16       10PX         0.12928
  17       10PY         0.40337
  18       10PZ         0.39837
  19       11PX         0.03391
  20       11PY         0.11649
  21       11PZ         0.10372
  22 2   O  1S          1.08382
  23        2S          0.90953
  24        2PX         0.28982
  25        2PY         0.32021
  26        2PZ         0.37900
  27        3S          0.97846
  28        3PX         0.62096
  29        3PY         0.65209
  30        3PZ         0.74407
  31        4S          0.87541
  32        4PX         0.52037
  33        4PY         0.60497
  34        4PZ         0.75890
  35 3   H  1S          0.24856
  36        2S          0.67474
  37        3S          0.26587
  38        4PX         0.00237
  39        4PY         0.00385
  40        4PZ         0.00971
  41 4   H  1S          0.24864
  42        2S          0.67435
  43        3S          0.23623
  44        4PX         0.00201
  45        4PY         0.01388
  46        4PZ         0.00073
  47 5   H  1S          0.24856
  48        2S          0.67474
  49        3S          0.26587
  50        4PX         0.00237
  51        4PY         0.00385
  52        4PZ         0.00971
  53 6   H  1S          0.27100
  54        2S          0.37375
  55        3S          0.04526
  56        4PX         0.01771
  57        4PY         0.03517
  58        4PZ         0.02043
          Condensed to atoms (all electrons):
               1          2          3          4          5          6
     1  Si  11.730581   0.217445   0.310486   0.362741   0.310486  -0.018693
     2  O    0.217445   8.274684  -0.023906  -0.019466  -0.023906   0.312755
     3  H    0.310486  -0.023906   1.004422  -0.036917  -0.046523  -0.002464
     4  H    0.362741  -0.019466  -0.036917   0.903346  -0.036917   0.003047
     5  H    0.310486  -0.023906  -0.046523  -0.036917   1.004422  -0.002464
     6  H   -0.018693   0.312755  -0.002464   0.003047  -0.002464   0.471134
 Mulliken charges:
               1
     1  Si   1.086954
     2  O   -0.737605
     3  H   -0.205099
     4  H   -0.175835
     5  H   -0.205099
     6  H    0.236685
 Sum of Mulliken charges =  -0.00000
 Mulliken charges with hydrogens summed into heavy atoms:
               1
     1  Si   0.500920
     2  O   -0.500920

 Bonding Mulliken population analysis:
      Bonding Density Matrix:
                           1         2         3         4         5
   1 1   Si 1S          0.00000
   2        2S          0.00000   0.00000
   3        3S          0.00000   0.00000   0.00000
   4        4S          0.00000   0.00000   0.00000   0.00000
   5        5S          0.00000   0.00000   0.00000   0.00000   0.00000
   6        6S          0.00000   0.00000   0.00000   0.00000   0.00000
   7        7PX         0.00000   0.00000   0.00000   0.00000   0.00000
   8        7PY         0.00000   0.00000   0.00000   0.00000   0.00000
   9        7PZ         0.00000   0.00000   0.00000   0.00000   0.00000
  10        8PX         0.00000   0.00000   0.00000   0.00000   0.00000
  11        8PY         0.00000   0.00000   0.00000   0.00000   0.00000
  12        8PZ         0.00000   0.00000   0.00000   0.00000   0.00000
  13        9PX         0.00000   0.00000   0.00000   0.00000   0.00000
  14        9PY         0.00000   0.00000   0.00000   0.00000   0.00000
  15        9PZ         0.00000   0.00000   0.00000   0.00000   0.00000
  16       10PX         0.00000   0.00000   0.00000   0.00000   0.00000
  17       10PY         0.00000   0.00000   0.00000   0.00000   0.00000
  18       10PZ         0.00000   0.00000   0.00000   0.00000   0.00000
  19       11PX         0.00000   0.00000   0.00000   0.00000   0.00000
  20       11PY         0.00000   0.00000   0.00000   0.00000   0.00000
  21       11PZ         0.00000   0.00000   0.00000   0.00000   0.00000
  22 2   O  1S         -0.00036  -0.00095   0.00179   0.00326  -0.00654
  23        2S         -0.00057  -0.00150   0.00278   0.00519  -0.01006
  24        2PX         0.00415   0.01134  -0.02534  -0.04354   0.09187
  25        2PY         0.00091   0.00253  -0.00608  -0.00879   0.01563
  26        2PZ         0.00000   0.00000  -0.00000   0.00000   0.00000
  27        3S          0.00137   0.00352  -0.00599  -0.01191   0.02174
  28        3PX         0.00623   0.01704  -0.03814  -0.06513   0.13585
  29        3PY         0.00134   0.00373  -0.00895  -0.01312   0.02365
  30        3PZ         0.00000   0.00000  -0.00000   0.00000   0.00000
  31        4S          0.00010   0.00018   0.00141  -0.00148   0.00674
  32        4PX         0.00429   0.01183  -0.02618  -0.04452   0.09167
  33        4PY         0.00244   0.00678  -0.01579  -0.02442   0.04643
  34        4PZ         0.00000   0.00000  -0.00000  -0.00000   0.00000
  35 3   H  1S          0.00423   0.01159  -0.02654  -0.04257   0.07965
  36        2S          0.00718   0.01988  -0.04537  -0.07054   0.12285
  37        3S         -0.00007  -0.00035  -0.00038  -0.00527   0.02654
  38        4PX        -0.00035  -0.00099   0.00229   0.00348  -0.00570
  39        4PY        -0.00048  -0.00137   0.00321   0.00486  -0.00801
  40        4PZ        -0.00079  -0.00225   0.00526   0.00796  -0.01298
  41 4   H  1S          0.00448   0.01228  -0.02819  -0.04511   0.08679
  42        2S          0.00788   0.02184  -0.05012  -0.07789   0.14194
  43        3S          0.00154   0.00410  -0.01059  -0.02119   0.05905
  44        4PX        -0.00033  -0.00095   0.00220   0.00334  -0.00565
  45        4PY         0.00105   0.00299  -0.00703  -0.01068   0.01841
  46        4PZ         0.00000   0.00000  -0.00000  -0.00000   0.00000
  47 5   H  1S          0.00423   0.01159  -0.02654  -0.04257   0.07965
  48        2S          0.00718   0.01988  -0.04537  -0.07054   0.12285
  49        3S         -0.00007  -0.00035  -0.00038  -0.00527   0.02654
  50        4PX        -0.00035  -0.00099   0.00229   0.00348  -0.00570
  51        4PY        -0.00048  -0.00137   0.00321   0.00486  -0.00801
  52        4PZ         0.00079   0.00225  -0.00526  -0.00796   0.01298
  53 6   H  1S         -0.00108  -0.00293   0.00650   0.01200  -0.02764
  54        2S         -0.00208  -0.00570   0.01265   0.02284  -0.05060
  55        3S         -0.00066  -0.00179   0.00360   0.00569  -0.00934
  56        4PX        -0.00017  -0.00052   0.00113   0.00163  -0.00209
  57        4PY         0.00043   0.00117  -0.00270  -0.00484   0.01126
  58        4PZ         0.00000   0.00000  -0.00000  -0.00000   0.00000
                           6         7         8         9        10
   6        6S          0.00000
   7        7PX         0.00000   0.00000
   8        7PY         0.00000   0.00000   0.00000
   9        7PZ         0.00000   0.00000   0.00000   0.00000
  10        8PX         0.00000   0.00000   0.00000   0.00000   0.00000
  11        8PY         0.00000   0.00000   0.00000   0.00000   0.00000
  12        8PZ         0.00000   0.00000   0.00000   0.00000   0.00000
  13        9PX         0.00000   0.00000   0.00000   0.00000   0.00000
  14        9PY         0.00000   0.00000   0.00000   0.00000   0.00000
  15        9PZ         0.00000   0.00000   0.00000   0.00000   0.00000
  16       10PX         0.00000   0.00000   0.00000   0.00000   0.00000
  17       10PY         0.00000   0.00000   0.00000   0.00000   0.00000
  18       10PZ         0.00000   0.00000   0.00000   0.00000   0.00000
  19       11PX         0.00000   0.00000   0.00000   0.00000   0.00000
  20       11PY         0.00000   0.00000   0.00000   0.00000   0.00000
  21       11PZ         0.00000   0.00000   0.00000   0.00000   0.00000
  22 2   O  1S          0.02778  -0.00472  -0.00059  -0.00000  -0.00892
  23        2S          0.04222  -0.00758  -0.00096  -0.00000  -0.01429
  24        2PX        -0.02266   0.02695   0.00019   0.00000   0.04868
  25        2PY         0.01679   0.00549  -0.00330   0.00000   0.00930
  26        2PZ        -0.00000   0.00000   0.00000  -0.00578   0.00000
  27        3S         -0.11191   0.01993   0.00296   0.00000   0.03764
  28        3PX        -0.03397   0.03935   0.00060  -0.00000   0.07109
  29        3PY         0.02065   0.00895  -0.00526   0.00000   0.01530
  30        3PZ        -0.00000   0.00000   0.00000  -0.00864   0.00000
  31        4S         -0.14427   0.03245   0.00093  -0.00000   0.06015
  32        4PX        -0.05004   0.03877   0.00011   0.00000   0.06994
  33        4PY         0.01874   0.01536  -0.00243   0.00000   0.02683
  34        4PZ        -0.00000   0.00000   0.00000  -0.00574   0.00000
  35 3   H  1S          0.04728  -0.00703  -0.01191  -0.02006  -0.01237
  36        2S          0.07926  -0.01333  -0.02382  -0.04050  -0.02355
  37        3S          0.01358  -0.00562  -0.01323  -0.02347  -0.00976
  38        4PX        -0.00244   0.00017   0.00105   0.00181   0.00028
  39        4PY        -0.00513   0.00087   0.00089   0.00252   0.00153
  40        4PZ        -0.00859   0.00159   0.00258   0.00375   0.00280
  41 4   H  1S          0.04587  -0.00714   0.02376   0.00000  -0.01257
  42        2S          0.08159  -0.01297   0.04826  -0.00000  -0.02300
  43        3S          0.02139   0.00033   0.02489   0.00000   0.00070
  44        4PX        -0.00200   0.00023  -0.00191   0.00000   0.00037
  45        4PY         0.01124  -0.00171   0.00541  -0.00000  -0.00304
  46        4PZ         0.00000  -0.00000  -0.00000  -0.00054  -0.00000
  47 5   H  1S          0.04728  -0.00703  -0.01191   0.02006  -0.01237
  48        2S          0.07926  -0.01333  -0.02382   0.04050  -0.02355
  49        3S          0.01358  -0.00562  -0.01323   0.02347  -0.00976
  50        4PX        -0.00244   0.00017   0.00105  -0.00181   0.00028
  51        4PY        -0.00513   0.00087   0.00089  -0.00252   0.00153
  52        4PZ         0.00859  -0.00159  -0.00258   0.00375  -0.00280
  53 6   H  1S          0.00550  -0.00644  -0.00078  -0.00000  -0.01176
  54        2S          0.02142  -0.01614   0.00056   0.00000  -0.02933
  55        3S          0.01019  -0.00428   0.00197   0.00000  -0.00787
  56        4PX         0.00212  -0.00076  -0.00023   0.00000  -0.00142
  57        4PY         0.00129   0.00291  -0.00052  -0.00000   0.00519
  58        4PZ        -0.00000   0.00000  -0.00000  -0.00062   0.00000
                          11        12        13        14        15
  11        8PY         0.00000
  12        8PZ         0.00000   0.00000
  13        9PX         0.00000   0.00000   0.00000
  14        9PY         0.00000   0.00000   0.00000   0.00000
  15        9PZ         0.00000   0.00000   0.00000   0.00000   0.00000
  16       10PX         0.00000   0.00000   0.00000   0.00000   0.00000
  17       10PY         0.00000   0.00000   0.00000   0.00000   0.00000
  18       10PZ         0.00000   0.00000   0.00000   0.00000   0.00000
  19       11PX         0.00000   0.00000   0.00000   0.00000   0.00000
  20       11PY         0.00000   0.00000   0.00000   0.00000   0.00000
  21       11PZ         0.00000   0.00000   0.00000   0.00000   0.00000
  22 2   O  1S         -0.00109  -0.00000   0.01213   0.00110   0.00000
  23        2S         -0.00178  -0.00000   0.01938   0.00181   0.00000
  24        2PX         0.00053   0.00000  -0.07171  -0.00235  -0.00000
  25        2PY        -0.00602   0.00000  -0.01106   0.00338  -0.00000
  26        2PZ         0.00000  -0.01040  -0.00000  -0.00000   0.00832
  27        3S          0.00554   0.00000  -0.05028  -0.00573  -0.00000
  28        3PX         0.00134   0.00000  -0.10410  -0.00389  -0.00000
  29        3PY        -0.00951   0.00000  -0.01840   0.00618  -0.00000
  30        3PZ         0.00000  -0.01551  -0.00000  -0.00000   0.01299
  31        4S          0.00216  -0.00000  -0.08698   0.00064   0.00000
  32        4PX         0.00044   0.00000  -0.10217  -0.00435  -0.00000
  33        4PY        -0.00454   0.00000  -0.03647   0.00032   0.00000
  34        4PZ         0.00000  -0.01051  -0.00000  -0.00000   0.00567
  35 3   H  1S         -0.02078  -0.03499   0.01720   0.02892   0.04896
  36        2S         -0.04157  -0.07059   0.03338   0.05817   0.09975
  37        3S         -0.02300  -0.04080   0.01193   0.03176   0.05676
  38        4PX         0.00182   0.00316   0.00008  -0.00238  -0.00430
  39        4PY         0.00155   0.00438  -0.00209  -0.00172  -0.00605
  40        4PZ         0.00449   0.00652  -0.00390  -0.00613  -0.00866
  41 4   H  1S          0.04141   0.00000   0.01737  -0.05765  -0.00000
  42        2S          0.08408  -0.00000   0.03270  -0.11787  -0.00000
  43        3S          0.04333   0.00000  -0.00333  -0.05905  -0.00000
  44        4PX        -0.00332   0.00000  -0.00004   0.00453   0.00000
  45        4PY         0.00941  -0.00000   0.00422  -0.01253  -0.00000
  46        4PZ        -0.00000  -0.00095   0.00000  -0.00000   0.00166
  47 5   H  1S         -0.02078   0.03499   0.01720   0.02892  -0.04896
  48        2S         -0.04157   0.07059   0.03338   0.05817  -0.09975
  49        3S         -0.02300   0.04080   0.01193   0.03176  -0.05676
  50        4PX         0.00182  -0.00316   0.00008  -0.00238   0.00430
  51        4PY         0.00155  -0.00438  -0.00209  -0.00172   0.00605
  52        4PZ        -0.00449   0.00652   0.00390   0.00613  -0.00866
  53 6   H  1S         -0.00156  -0.00000   0.01970   0.00004  -0.00000
  54        2S          0.00070   0.00000   0.04436  -0.00405  -0.00000
  55        3S          0.00336   0.00000   0.01388  -0.00566  -0.00000
  56        4PX        -0.00044   0.00000   0.00228   0.00019  -0.00000
  57        4PY        -0.00089  -0.00000  -0.00783   0.00121   0.00000
  58        4PZ        -0.00000  -0.00112  -0.00000   0.00000   0.00074
                          16        17        18        19        20
  16       10PX         0.00000
  17       10PY         0.00000   0.00000
  18       10PZ         0.00000   0.00000   0.00000
  19       11PX         0.00000   0.00000   0.00000   0.00000
  20       11PY         0.00000   0.00000   0.00000   0.00000   0.00000
  21       11PZ         0.00000   0.00000   0.00000   0.00000   0.00000
  22 2   O  1S         -0.00403   0.00268  -0.00000   0.00292   0.00691
  23        2S         -0.00575   0.00438  -0.00000   0.00471   0.01164
  24        2PX        -0.05166   0.00848   0.00000  -0.01658   0.02406
  25        2PY        -0.02056   0.03067  -0.00000   0.00324   0.04401
  26        2PZ         0.00000   0.00000   0.04717   0.00000  -0.00000
  27        3S          0.01798  -0.01452   0.00000  -0.01247  -0.03765
  28        3PX        -0.07347   0.01120   0.00000  -0.02403   0.03334
  29        3PY        -0.03014   0.04486  -0.00000   0.00364   0.06203
  30        3PZ         0.00000   0.00000   0.06771   0.00000  -0.00000
  31        4S         -0.01382  -0.01063   0.00000  -0.02568  -0.03511
  32        4PX        -0.07326   0.01353   0.00000  -0.02331   0.03575
  33        4PY        -0.04611   0.03945   0.00000  -0.00048   0.06731
  34        4PZ         0.00000   0.00000   0.06457   0.00000  -0.00000
  35 3   H  1S          0.01641   0.03630   0.06009   0.00387   0.00694
  36        2S          0.03075   0.07102   0.11718   0.00624   0.01090
  37        3S          0.01533   0.03390   0.05915  -0.00029  -0.00326
  38        4PX        -0.00015  -0.00328  -0.00536   0.00006  -0.00113
  39        4PY        -0.00189  -0.00214  -0.00681  -0.00059  -0.00030
  40        4PZ        -0.00363  -0.00722  -0.00982  -0.00070  -0.00070
  41 4   H  1S          0.01718  -0.07318  -0.00000   0.01180  -0.01778
  42        2S          0.02893  -0.14664   0.00000   0.02334  -0.03116
  43        3S         -0.00270  -0.06758  -0.00000   0.00717  -0.00465
  44        4PX        -0.00038   0.00562   0.00000  -0.00056   0.00113
  45        4PY         0.00341  -0.01519  -0.00000   0.00287  -0.00255
  46        4PZ         0.00000  -0.00000   0.00184   0.00000  -0.00000
  47 5   H  1S          0.01641   0.03630  -0.06009   0.00387   0.00694
  48        2S          0.03075   0.07102  -0.11718   0.00624   0.01090
  49        3S          0.01533   0.03390  -0.05915  -0.00029  -0.00326
  50        4PX        -0.00015  -0.00328   0.00536   0.00006  -0.00113
  51        4PY        -0.00189  -0.00214   0.00681  -0.00059  -0.00030
  52        4PZ         0.00363   0.00722  -0.00982   0.00070   0.00070
  53 6   H  1S          0.01464   0.00985   0.00000   0.00827   0.00955
  54        2S          0.02948   0.00402  -0.00000   0.01525   0.00611
  55        3S          0.00834  -0.00470  -0.00000   0.00505   0.00083
  56        4PX         0.00103   0.00291  -0.00000   0.00135   0.00359
  57        4PY        -0.00794   0.00288   0.00000  -0.00205   0.00458
  58        4PZ         0.00000   0.00000   0.00470  -0.00000  -0.00000
                          21        22        23        24        25
  21       11PZ         0.00000
  22 2   O  1S         -0.00000   0.00000
  23        2S         -0.00000   0.00000   0.00000
  24        2PX         0.00000   0.00000   0.00000   0.00000
  25        2PY        -0.00000   0.00000   0.00000   0.00000   0.00000
  26        2PZ         0.06341   0.00000   0.00000   0.00000   0.00000
  27        3S          0.00000   0.00000   0.00000   0.00000   0.00000
  28        3PX         0.00000   0.00000   0.00000   0.00000   0.00000
  29        3PY        -0.00000   0.00000   0.00000   0.00000   0.00000
  30        3PZ         0.08905   0.00000   0.00000   0.00000   0.00000
  31        4S          0.00000   0.00000   0.00000   0.00000   0.00000
  32        4PX         0.00000   0.00000   0.00000   0.00000   0.00000
  33        4PY        -0.00000   0.00000   0.00000   0.00000   0.00000
  34        4PZ         0.09769   0.00000   0.00000   0.00000   0.00000
  35 3   H  1S          0.00840   0.00124   0.00191  -0.01061  -0.00737
  36        2S          0.00833   0.00200   0.00340  -0.02582  -0.02264
  37        3S         -0.00818  -0.00873  -0.01384  -0.01779  -0.03788
  38        4PX        -0.00086   0.00013   0.00007  -0.00112  -0.00032
  39        4PY         0.00001  -0.00023  -0.00041   0.00146   0.00060
  40        4PZ        -0.00005  -0.00022  -0.00037   0.00318   0.00378
  41 4   H  1S         -0.00000   0.00332   0.00533  -0.00656   0.00744
  42        2S         -0.00000   0.00906   0.01485  -0.01523   0.03465
  43        3S         -0.00000   0.00338   0.00634   0.01758   0.04375
  44        4PX         0.00000   0.00014   0.00009  -0.00107  -0.00082
  45        4PY        -0.00000   0.00153   0.00255  -0.00184   0.00622
  46        4PZ         0.00000   0.00000   0.00000  -0.00000  -0.00000
  47 5   H  1S         -0.00840   0.00124   0.00191  -0.01061  -0.00737
  48        2S         -0.00833   0.00200   0.00340  -0.02582  -0.02264
  49        3S          0.00818  -0.00873  -0.01384  -0.01779  -0.03788
  50        4PX         0.00086   0.00013   0.00007  -0.00112  -0.00032
  51        4PY        -0.00001  -0.00023  -0.00041   0.00146   0.00060
  52        4PZ        -0.00005   0.00022   0.00037  -0.00318  -0.00378
  53 6   H  1S         -0.00000  -0.01675  -0.02659  -0.05305   0.07475
  54        2S         -0.00000  -0.01143  -0.01781  -0.09169   0.08676
  55        3S         -0.00000   0.00101   0.00116  -0.02416   0.02397
  56        4PX        -0.00000  -0.00201  -0.00286  -0.00638   0.01745
  57        4PY         0.00000   0.00753   0.01145   0.01892   0.00061
  58        4PZ         0.00646   0.00000   0.00000   0.00000  -0.00000
                          26        27        28        29        30
  26        2PZ         0.00000
  27        3S          0.00000   0.00000
  28        3PX         0.00000   0.00000   0.00000
  29        3PY         0.00000   0.00000   0.00000   0.00000
  30        3PZ         0.00000   0.00000   0.00000   0.00000   0.00000
  31        4S          0.00000   0.00000   0.00000   0.00000   0.00000
  32        4PX         0.00000   0.00000   0.00000   0.00000   0.00000
  33        4PY         0.00000   0.00000   0.00000   0.00000   0.00000
  34        4PZ         0.00000   0.00000   0.00000   0.00000   0.00000
  35 3   H  1S         -0.01146  -0.00451  -0.01496  -0.01009  -0.01493
  36        2S         -0.04819  -0.00855  -0.03668  -0.03123  -0.06515
  37        3S         -0.06408   0.04078  -0.02432  -0.05193  -0.08832
  38        4PX         0.00067   0.00034  -0.00162  -0.00053   0.00084
  39        4PY         0.00438   0.00122   0.00209   0.00087   0.00599
  40        4PZ         0.00612   0.00087   0.00451   0.00524   0.00837
  41 4   H  1S         -0.00000  -0.01448  -0.00898   0.00825  -0.00000
  42        2S          0.00000  -0.04211  -0.02166   0.04376   0.00000
  43        3S         -0.00000  -0.02258   0.02504   0.05947  -0.00000
  44        4PX        -0.00000   0.00019  -0.00158  -0.00104  -0.00000
  45        4PY        -0.00000  -0.00746  -0.00269   0.00812  -0.00000
  46        4PZ        -0.00118  -0.00000  -0.00000  -0.00000  -0.00161
  47 5   H  1S          0.01146  -0.00451  -0.01496  -0.01009   0.01493
  48        2S          0.04819  -0.00855  -0.03668  -0.03123   0.06515
  49        3S          0.06408   0.04078  -0.02432  -0.05193   0.08832
  50        4PX        -0.00067   0.00034  -0.00162  -0.00053  -0.00084
  51        4PY        -0.00438   0.00122   0.00209   0.00087  -0.00599
  52        4PZ         0.00612  -0.00087  -0.00451  -0.00524   0.00837
  53 6   H  1S          0.00000   0.07771  -0.07532   0.10356   0.00000
  54        2S          0.00000   0.05415  -0.13165   0.11865   0.00000
  55        3S          0.00000  -0.00057  -0.03499   0.03246   0.00000
  56        4PX         0.00000   0.00720  -0.00918   0.02420   0.00000
  57        4PY        -0.00000  -0.03204   0.02652   0.00098  -0.00000
  58        4PZ         0.01776  -0.00000   0.00000  -0.00000   0.02484
                          31        32        33        34        35
  31        4S          0.00000
  32        4PX         0.00000   0.00000
  33        4PY         0.00000   0.00000   0.00000
  34        4PZ         0.00000   0.00000   0.00000   0.00000
  35 3   H  1S         -0.01337  -0.02171  -0.01557  -0.02403   0.00000
  36        2S         -0.02167  -0.04879  -0.04296  -0.08813   0.00000
  37        3S          0.04105  -0.03017  -0.06083  -0.10795   0.00000
  38        4PX         0.00005  -0.00111  -0.00064   0.00158   0.00000
  39        4PY         0.00249   0.00272   0.00140   0.00764   0.00000
  40        4PZ         0.00197   0.00603   0.00654   0.01071   0.00000
  41 4   H  1S         -0.03779  -0.01250   0.01122  -0.00000  -0.00993
  42        2S         -0.09353  -0.02294   0.04914   0.00000  -0.02735
  43        3S         -0.04129   0.02796   0.06850  -0.00000  -0.02293
  44        4PX         0.00106  -0.00132  -0.00169  -0.00000   0.00134
  45        4PY        -0.01416  -0.00269   0.00866  -0.00000  -0.00238
  46        4PZ        -0.00000  -0.00000  -0.00000  -0.00206   0.00146
  47 5   H  1S         -0.01337  -0.02171  -0.01557   0.02403  -0.01044
  48        2S         -0.02167  -0.04879  -0.04296   0.08813  -0.02994
  49        3S          0.04105  -0.03017  -0.06083   0.10795  -0.02823
  50        4PX         0.00005  -0.00111  -0.00064  -0.00158   0.00166
  51        4PY         0.00249   0.00272   0.00140  -0.00764   0.00276
  52        4PZ        -0.00197  -0.00603  -0.00654   0.01071  -0.00159
  53 6   H  1S          0.00347  -0.04721   0.07723   0.00000  -0.00085
  54        2S         -0.04551  -0.09663   0.08175   0.00000   0.00053
  55        3S         -0.02641  -0.02664   0.02408   0.00000  -0.00108
  56        4PX        -0.00518  -0.00425   0.02063   0.00000  -0.00033
  57        4PY        -0.01674   0.02179   0.00886  -0.00000  -0.00062
  58        4PZ        -0.00000   0.00000  -0.00000   0.02790  -0.00125
                          36        37        38        39        40
  36        2S          0.00000
  37        3S          0.00000   0.00000
  38        4PX         0.00000   0.00000   0.00000
  39        4PY         0.00000   0.00000   0.00000   0.00000
  40        4PZ         0.00000   0.00000   0.00000   0.00000   0.00000
  41 4   H  1S         -0.02637  -0.02479   0.00134  -0.00021   0.00276
  42        2S         -0.06665  -0.05875   0.00310   0.00025   0.00720
  43        3S         -0.05193  -0.04102   0.00165   0.00114   0.00592
  44        4PX         0.00309   0.00230  -0.00011  -0.00005  -0.00033
  45        4PY        -0.00638  -0.00675   0.00030  -0.00004   0.00071
  46        4PZ         0.00317   0.00210  -0.00013  -0.00020  -0.00029
  47 5   H  1S         -0.02994  -0.02823   0.00166   0.00276   0.00159
  48        2S         -0.07912  -0.06879   0.00400   0.00698   0.00521
  49        3S         -0.06879  -0.04975   0.00309   0.00592   0.00547
  50        4PX         0.00400   0.00309  -0.00016  -0.00032  -0.00030
  51        4PY         0.00698   0.00592  -0.00032  -0.00051  -0.00056
  52        4PZ        -0.00521  -0.00547   0.00030   0.00056   0.00026
  53 6   H  1S         -0.00452  -0.01000   0.00044  -0.00012   0.00112
  54        2S         -0.00156  -0.01221   0.00090  -0.00054   0.00080
  55        3S         -0.00319  -0.00621   0.00037  -0.00013   0.00050
  56        4PX        -0.00151  -0.00326   0.00003  -0.00000   0.00032
  57        4PY        -0.00168  -0.00285  -0.00021   0.00011   0.00021
  58        4PZ        -0.00510  -0.00665   0.00008   0.00046   0.00064
                          41        42        43        44        45
  41 4   H  1S          0.00000
  42        2S          0.00000   0.00000
  43        3S          0.00000   0.00000   0.00000
  44        4PX         0.00000   0.00000   0.00000   0.00000
  45        4PY         0.00000   0.00000   0.00000   0.00000   0.00000
  46        4PZ         0.00000   0.00000   0.00000   0.00000   0.00000
  47 5   H  1S         -0.00993  -0.02735  -0.02293   0.00134  -0.00238
  48        2S         -0.02637  -0.06665  -0.05193   0.00309  -0.00638
  49        3S         -0.02479  -0.05875  -0.04102   0.00230  -0.00675
  50        4PX         0.00134   0.00310   0.00165  -0.00011   0.00030
  51        4PY        -0.00021   0.00025   0.00114  -0.00005  -0.00004
  52        4PZ        -0.00276  -0.00720  -0.00592   0.00033  -0.00071
  53 6   H  1S          0.00811   0.02742   0.01784  -0.00017   0.00416
  54        2S          0.01760   0.04962   0.02334  -0.00036   0.00703
  55        3S          0.01022   0.02452   0.01159  -0.00048   0.00318
  56        4PX         0.00165   0.00579   0.00475  -0.00007   0.00092
  57        4PY        -0.00183  -0.00390   0.00113  -0.00004  -0.00038
  58        4PZ        -0.00000  -0.00000  -0.00000  -0.00000  -0.00000
                          46        47        48        49        50
  46        4PZ         0.00000
  47 5   H  1S         -0.00146   0.00000
  48        2S         -0.00317   0.00000   0.00000
  49        3S         -0.00210   0.00000   0.00000   0.00000
  50        4PX         0.00013   0.00000   0.00000   0.00000   0.00000
  51        4PY         0.00020   0.00000   0.00000   0.00000   0.00000
  52        4PZ        -0.00029   0.00000   0.00000   0.00000   0.00000
  53 6   H  1S         -0.00000  -0.00085  -0.00452  -0.01000   0.00044
  54        2S         -0.00000   0.00053  -0.00156  -0.01221   0.00090
  55        3S         -0.00000  -0.00108  -0.00319  -0.00621   0.00037
  56        4PX        -0.00000  -0.00033  -0.00151  -0.00326   0.00003
  57        4PY         0.00000  -0.00062  -0.00168  -0.00285  -0.00021
  58        4PZ        -0.00012   0.00125   0.00510   0.00665  -0.00008
                          51        52        53        54        55
  51        4PY         0.00000
  52        4PZ         0.00000   0.00000
  53 6   H  1S         -0.00012  -0.00112   0.00000
  54        2S         -0.00054  -0.00080   0.00000   0.00000
  55        3S         -0.00013  -0.00050   0.00000   0.00000   0.00000
  56        4PX        -0.00000  -0.00032   0.00000   0.00000   0.00000
  57        4PY         0.00011  -0.00021   0.00000   0.00000   0.00000
  58        4PZ        -0.00046   0.00064   0.00000   0.00000   0.00000
                          56        57        58
  56        4PX         0.00000
  57        4PY         0.00000   0.00000
  58        4PZ         0.00000   0.00000   0.00000
    Full Bonding Mulliken population analysis:
                           1         2         3         4         5
   1 1   Si 1S          0.00000
   2        2S          0.00000   0.00000
   3        3S          0.00000   0.00000   0.00000
   4        4S          0.00000   0.00000   0.00000   0.00000
   5        5S          0.00000   0.00000   0.00000   0.00000   0.00000
   6        6S          0.00000   0.00000   0.00000   0.00000   0.00000
   7        7PX         0.00000   0.00000   0.00000   0.00000   0.00000
   8        7PY         0.00000   0.00000   0.00000   0.00000   0.00000
   9        7PZ         0.00000   0.00000   0.00000   0.00000   0.00000
  10        8PX         0.00000   0.00000   0.00000   0.00000   0.00000
  11        8PY         0.00000   0.00000   0.00000   0.00000   0.00000
  12        8PZ         0.00000   0.00000   0.00000   0.00000   0.00000
  13        9PX         0.00000   0.00000   0.00000   0.00000   0.00000
  14        9PY         0.00000   0.00000   0.00000   0.00000   0.00000
  15        9PZ         0.00000   0.00000   0.00000   0.00000   0.00000
  16       10PX         0.00000   0.00000   0.00000   0.00000   0.00000
  17       10PY         0.00000   0.00000   0.00000   0.00000   0.00000
  18       10PZ         0.00000   0.00000   0.00000   0.00000   0.00000
  19       11PX         0.00000   0.00000   0.00000   0.00000   0.00000
  20       11PY         0.00000   0.00000   0.00000   0.00000   0.00000
  21       11PZ         0.00000   0.00000   0.00000   0.00000   0.00000
  22 2   O  1S         -0.00000  -0.00000   0.00000   0.00000  -0.00008
  23        2S          0.00000   0.00000  -0.00000   0.00000  -0.00012
  24        2PX         0.00000   0.00000  -0.00000  -0.00000   0.00245
  25        2PY         0.00000   0.00000  -0.00000  -0.00000   0.00003
  26        2PZ         0.00000   0.00000  -0.00000   0.00000   0.00000
  27        3S          0.00000   0.00000  -0.00000  -0.00003   0.00198
  28        3PX         0.00000   0.00000  -0.00005  -0.00065   0.01688
  29        3PY         0.00000   0.00000  -0.00000  -0.00001   0.00023
  30        3PZ         0.00000   0.00000  -0.00000   0.00000   0.00000
  31        4S          0.00000   0.00000   0.00004  -0.00009   0.00174
  32        4PX         0.00003   0.00024  -0.00211  -0.00750   0.03886
  33        4PY         0.00000   0.00001  -0.00010  -0.00032   0.00153
  34        4PZ         0.00000   0.00000  -0.00000  -0.00000   0.00000
  35 3   H  1S          0.00000   0.00000  -0.00002  -0.00023   0.00952
  36        2S          0.00002   0.00018  -0.00167  -0.00598   0.03954
  37        3S         -0.00000  -0.00001  -0.00003  -0.00087   0.01285
  38        4PX         0.00000   0.00000  -0.00001  -0.00007   0.00044
  39        4PY         0.00000   0.00000  -0.00003  -0.00014   0.00087
  40        4PZ         0.00000   0.00001  -0.00008  -0.00039   0.00236
  41 4   H  1S          0.00000   0.00000  -0.00002  -0.00026   0.01061
  42        2S          0.00002   0.00020  -0.00190  -0.00678   0.04636
  43        3S          0.00001   0.00009  -0.00087  -0.00354   0.02880
  44        4PX         0.00000   0.00000  -0.00001  -0.00007   0.00043
  45        4PY         0.00000   0.00001  -0.00013  -0.00065   0.00396
  46        4PZ        -0.00000  -0.00000   0.00000   0.00000  -0.00000
  47 5   H  1S          0.00000   0.00000  -0.00002  -0.00023   0.00952
  48        2S          0.00002   0.00018  -0.00167  -0.00598   0.03954
  49        3S         -0.00000  -0.00001  -0.00003  -0.00087   0.01285
  50        4PX         0.00000   0.00000  -0.00001  -0.00007   0.00044
  51        4PY         0.00000   0.00000  -0.00003  -0.00014   0.00087
  52        4PZ         0.00000   0.00001  -0.00008  -0.00039   0.00236
  53 6   H  1S         -0.00000  -0.00000   0.00000   0.00000  -0.00024
  54        2S         -0.00000  -0.00000   0.00001   0.00007  -0.00278
  55        3S         -0.00000  -0.00001   0.00008   0.00029  -0.00183
  56        4PX        -0.00000  -0.00000   0.00000   0.00000  -0.00007
  57        4PY        -0.00000  -0.00000   0.00000   0.00000  -0.00010
  58        4PZ        -0.00000  -0.00000   0.00000   0.00000  -0.00000
                           6         7         8         9        10
   6        6S          0.00000
   7        7PX         0.00000   0.00000
   8        7PY         0.00000   0.00000   0.00000
   9        7PZ         0.00000   0.00000   0.00000   0.00000
  10        8PX         0.00000   0.00000   0.00000   0.00000   0.00000
  11        8PY         0.00000   0.00000   0.00000   0.00000   0.00000
  12        8PZ         0.00000   0.00000   0.00000   0.00000   0.00000
  13        9PX         0.00000   0.00000   0.00000   0.00000   0.00000
  14        9PY         0.00000   0.00000   0.00000   0.00000   0.00000
  15        9PZ         0.00000   0.00000   0.00000   0.00000   0.00000
  16       10PX         0.00000   0.00000   0.00000   0.00000   0.00000
  17       10PY         0.00000   0.00000   0.00000   0.00000   0.00000
  18       10PZ         0.00000   0.00000   0.00000   0.00000   0.00000
  19       11PX         0.00000   0.00000   0.00000   0.00000   0.00000
  20       11PY         0.00000   0.00000   0.00000   0.00000   0.00000
  21       11PZ         0.00000   0.00000   0.00000   0.00000   0.00000
  22 2   O  1S          0.00081   0.00000   0.00000   0.00000   0.00000
  23        2S          0.00130  -0.00000  -0.00000  -0.00000   0.00000
  24        2PX        -0.00055  -0.00000  -0.00000  -0.00000  -0.00001
  25        2PY         0.00003  -0.00000  -0.00000  -0.00000  -0.00000
  26        2PZ        -0.00000  -0.00000  -0.00000  -0.00000  -0.00000
  27        3S         -0.02026  -0.00000  -0.00000  -0.00000  -0.00015
  28        3PX        -0.00358  -0.00002  -0.00000   0.00000  -0.00103
  29        3PY         0.00017  -0.00000  -0.00000  -0.00000  -0.00002
  30        3PZ        -0.00000  -0.00000  -0.00000  -0.00000  -0.00000
  31        4S         -0.05819  -0.00019  -0.00000   0.00000  -0.00272
  32        4PX        -0.01783  -0.00058  -0.00000  -0.00000  -0.00715
  33        4PY         0.00052  -0.00002  -0.00001  -0.00000  -0.00027
  34        4PZ        -0.00000  -0.00000  -0.00000  -0.00002  -0.00000
  35 3   H  1S          0.00842  -0.00000  -0.00000  -0.00000  -0.00003
  36        2S          0.03408  -0.00004  -0.00010  -0.00029  -0.00054
  37        3S          0.00923  -0.00001  -0.00004  -0.00013  -0.00016
  38        4PX         0.00012  -0.00000  -0.00000  -0.00000   0.00000
  39        4PY         0.00035  -0.00000  -0.00000  -0.00001  -0.00002
  40        4PZ         0.00098  -0.00000  -0.00001  -0.00002  -0.00007
  41 4   H  1S          0.00825  -0.00000  -0.00000   0.00000  -0.00004
  42        2S          0.03535  -0.00004  -0.00041  -0.00000  -0.00053
  43        3S          0.01461   0.00000  -0.00016   0.00000   0.00001
  44        4PX         0.00009  -0.00000  -0.00000  -0.00000   0.00000
  45        4PY         0.00149  -0.00000  -0.00004  -0.00000  -0.00009
  46        4PZ        -0.00000   0.00000  -0.00000  -0.00000   0.00000
  47 5   H  1S          0.00842  -0.00000  -0.00000  -0.00000  -0.00003
  48        2S          0.03408  -0.00004  -0.00010  -0.00029  -0.00054
  49        3S          0.00923  -0.00001  -0.00004  -0.00013  -0.00016
  50        4PX         0.00012  -0.00000  -0.00000  -0.00000   0.00000
  51        4PY         0.00035  -0.00000  -0.00000  -0.00001  -0.00002
  52        4PZ         0.00098  -0.00000  -0.00001  -0.00002  -0.00007
  53 6   H  1S          0.00033   0.00000  -0.00000  -0.00000   0.00000
  54        2S          0.00374   0.00000   0.00000   0.00000   0.00010
  55        3S          0.00378   0.00001   0.00000   0.00000   0.00018
  56        4PX         0.00016   0.00000  -0.00000   0.00000   0.00000
  57        4PY        -0.00003   0.00000   0.00000   0.00000   0.00000
  58        4PZ         0.00000   0.00000   0.00000  -0.00000   0.00000
                          11        12        13        14        15
  11        8PY         0.00000
  12        8PZ         0.00000   0.00000
  13        9PX         0.00000   0.00000   0.00000
  14        9PY         0.00000   0.00000   0.00000   0.00000
  15        9PZ         0.00000   0.00000   0.00000   0.00000   0.00000
  16       10PX         0.00000   0.00000   0.00000   0.00000   0.00000
  17       10PY         0.00000   0.00000   0.00000   0.00000   0.00000
  18       10PZ         0.00000   0.00000   0.00000   0.00000   0.00000
  19       11PX         0.00000   0.00000   0.00000   0.00000   0.00000
  20       11PY         0.00000   0.00000   0.00000   0.00000   0.00000
  21       11PZ         0.00000   0.00000   0.00000   0.00000   0.00000
  22 2   O  1S          0.00000   0.00000  -0.00009  -0.00000  -0.00000
  23        2S          0.00000   0.00000  -0.00014  -0.00000  -0.00000
  24        2PX        -0.00000  -0.00000   0.00230   0.00001   0.00000
  25        2PY        -0.00000  -0.00000   0.00003   0.00001   0.00000
  26        2PZ        -0.00000  -0.00000   0.00000   0.00000   0.00003
  27        3S         -0.00000  -0.00000   0.00452   0.00004   0.00000
  28        3PX        -0.00000  -0.00000   0.01766   0.00006   0.00000
  29        3PY        -0.00001  -0.00000   0.00028   0.00017   0.00000
  30        3PZ        -0.00000  -0.00002   0.00000   0.00000   0.00038
  31        4S         -0.00001   0.00000   0.02054  -0.00001  -0.00000
  32        4PX        -0.00000  -0.00000   0.03781   0.00017   0.00000
  33        4PY        -0.00012  -0.00000   0.00146   0.00004  -0.00000
  34        4PZ        -0.00000  -0.00029   0.00000   0.00000   0.00082
  35 3   H  1S         -0.00008  -0.00024   0.00082   0.00196   0.00558
  36        2S         -0.00135  -0.00385   0.00362   0.00894   0.02574
  37        3S         -0.00053  -0.00158   0.00091   0.00342   0.01026
  38        4PX        -0.00003  -0.00007   0.00000   0.00016   0.00050
  39        4PY        -0.00001  -0.00014   0.00015   0.00001   0.00100
  40        4PZ        -0.00015  -0.00029   0.00045   0.00101   0.00162
  41 4   H  1S         -0.00035   0.00000   0.00085   0.00790  -0.00000
  42        2S         -0.00546  -0.00000   0.00355   0.03595  -0.00000
  43        3S         -0.00196   0.00000  -0.00025   0.01247  -0.00000
  44        4PX        -0.00009  -0.00000  -0.00000   0.00062  -0.00000
  45        4PY        -0.00064  -0.00000   0.00057   0.00364  -0.00000
  46        4PZ        -0.00000  -0.00001  -0.00000  -0.00000   0.00015
  47 5   H  1S         -0.00008  -0.00024   0.00082   0.00196   0.00558
  48        2S         -0.00135  -0.00385   0.00362   0.00894   0.02574
  49        3S         -0.00053  -0.00158   0.00091   0.00342   0.01026
  50        4PX        -0.00003  -0.00007   0.00000   0.00016   0.00050
  51        4PY        -0.00001  -0.00014   0.00015   0.00001   0.00100
  52        4PZ        -0.00015  -0.00029   0.00045   0.00101   0.00162
  53 6   H  1S         -0.00000  -0.00000  -0.00005   0.00000  -0.00000
  54        2S          0.00000   0.00000  -0.00191  -0.00005  -0.00000
  55        3S          0.00002   0.00000  -0.00168  -0.00019  -0.00000
  56        4PX        -0.00000   0.00000  -0.00005   0.00000  -0.00000
  57        4PY         0.00000   0.00000  -0.00005   0.00000  -0.00000
  58        4PZ         0.00000  -0.00000  -0.00000  -0.00000   0.00000
                          16        17        18        19        20
  16       10PX         0.00000
  17       10PY         0.00000   0.00000
  18       10PZ         0.00000   0.00000   0.00000
  19       11PX         0.00000   0.00000   0.00000   0.00000
  20       11PY         0.00000   0.00000   0.00000   0.00000   0.00000
  21       11PZ         0.00000   0.00000   0.00000   0.00000   0.00000
  22 2   O  1S          0.00021  -0.00001   0.00000  -0.00014  -0.00003
  23        2S          0.00031  -0.00002   0.00000  -0.00025  -0.00005
  24        2PX         0.00304  -0.00005  -0.00000   0.00012  -0.00005
  25        2PY         0.00013   0.00066   0.00000  -0.00001   0.00093
  26        2PZ        -0.00000  -0.00000   0.00103  -0.00000   0.00000
  27        3S         -0.00531   0.00033  -0.00000   0.00359   0.00084
  28        3PX         0.01582  -0.00027  -0.00000   0.00064  -0.00031
  29        3PY         0.00073   0.00421   0.00000  -0.00003   0.00574
  30        3PZ        -0.00000  -0.00000   0.00648  -0.00000   0.00000
  31        4S          0.00702   0.00042  -0.00000   0.01414   0.00150
  32        4PX         0.02876  -0.00074  -0.00000   0.00075  -0.00102
  33        4PY         0.00252   0.01206  -0.00000   0.00001   0.02245
  34        4PZ        -0.00000  -0.00000   0.02002  -0.00000   0.00000
  35 3   H  1S          0.00176   0.00550   0.01530   0.00031   0.00078
  36        2S          0.00599   0.01960   0.05430   0.00106   0.00263
  37        3S          0.00249   0.00781   0.02289  -0.00006  -0.00097
  38        4PX        -0.00002   0.00022   0.00061   0.00001   0.00002
  39        4PY         0.00013  -0.00017   0.00110   0.00001  -0.00003
  40        4PZ         0.00041   0.00116   0.00092   0.00002   0.00003
  41 4   H  1S          0.00183   0.02194  -0.00000   0.00092   0.00389
  42        2S          0.00559   0.07967   0.00000   0.00392   0.01471
  43        3S         -0.00043   0.03049  -0.00000   0.00148   0.00269
  44        4PX        -0.00005   0.00074  -0.00000  -0.00007   0.00005
  45        4PY         0.00045   0.00286  -0.00000   0.00012  -0.00006
  46        4PZ        -0.00000  -0.00000   0.00033  -0.00000  -0.00000
  47 5   H  1S          0.00176   0.00550   0.01530   0.00031   0.00078
  48        2S          0.00599   0.01960   0.05430   0.00106   0.00263
  49        3S          0.00249   0.00781   0.02289  -0.00006  -0.00097
  50        4PX        -0.00002   0.00022   0.00061   0.00001   0.00002
  51        4PY         0.00013  -0.00017   0.00110   0.00001  -0.00003
  52        4PZ         0.00041   0.00116   0.00092   0.00002   0.00003
  53 6   H  1S         -0.00097   0.00018   0.00000  -0.00138   0.00044
  54        2S         -0.00606   0.00023  -0.00000  -0.00604   0.00067
  55        3S         -0.00273  -0.00043  -0.00000  -0.00294   0.00013
  56        4PX        -0.00013   0.00013  -0.00000  -0.00011   0.00015
  57        4PY        -0.00035   0.00005  -0.00000  -0.00008   0.00024
  58        4PZ         0.00000  -0.00000   0.00013  -0.00000   0.00000
                          21        22        23        24        25
  21       11PZ         0.00000
  22 2   O  1S          0.00000   0.00000
  23        2S          0.00000   0.00000   0.00000
  24        2PX        -0.00000   0.00000   0.00000   0.00000
  25        2PY         0.00000   0.00000   0.00000   0.00000   0.00000
  26        2PZ         0.00134   0.00000   0.00000   0.00000   0.00000
  27        3S         -0.00000   0.00000   0.00000   0.00000   0.00000
  28        3PX        -0.00000   0.00000   0.00000   0.00000   0.00000
  29        3PY         0.00000   0.00000   0.00000   0.00000   0.00000
  30        3PZ         0.00831   0.00000   0.00000   0.00000   0.00000
  31        4S         -0.00000   0.00000   0.00000   0.00000   0.00000
  32        4PX        -0.00000   0.00000   0.00000   0.00000   0.00000
  33        4PY         0.00000   0.00000   0.00000   0.00000   0.00000
  34        4PZ         0.03280   0.00000   0.00000   0.00000   0.00000
  35 3   H  1S          0.00158   0.00000  -0.00000  -0.00000  -0.00000
  36        2S          0.00338   0.00000   0.00000  -0.00001  -0.00000
  37        3S         -0.00407  -0.00006  -0.00009  -0.00014  -0.00011
  38        4PX         0.00003  -0.00000  -0.00000   0.00000   0.00000
  39        4PY        -0.00000   0.00000   0.00000  -0.00000  -0.00000
  40        4PZ        -0.00000   0.00000   0.00000  -0.00000  -0.00000
  41 4   H  1S         -0.00000   0.00000   0.00000  -0.00000  -0.00000
  42        2S         -0.00000   0.00000   0.00000  -0.00001  -0.00001
  43        3S         -0.00000   0.00003   0.00005   0.00017  -0.00024
  44        4PX        -0.00000  -0.00000  -0.00000   0.00000  -0.00000
  45        4PY        -0.00000   0.00000   0.00000  -0.00000  -0.00000
  46        4PZ         0.00000  -0.00000  -0.00000   0.00000  -0.00000
  47 5   H  1S          0.00158   0.00000  -0.00000  -0.00000  -0.00000
  48        2S          0.00338   0.00000   0.00000  -0.00001  -0.00000
  49        3S         -0.00407  -0.00006  -0.00009  -0.00014  -0.00011
  50        4PX         0.00003  -0.00000  -0.00000   0.00000   0.00000
  51        4PY        -0.00000   0.00000   0.00000  -0.00000  -0.00000
  52        4PZ        -0.00000   0.00000   0.00000  -0.00000  -0.00000
  53 6   H  1S         -0.00000  -0.00024  -0.00035   0.00242   0.00458
  54        2S         -0.00000  -0.00077  -0.00128   0.00545   0.00694
  55        3S         -0.00000   0.00006   0.00007   0.00043   0.00057
  56        4PX        -0.00000  -0.00012  -0.00018   0.00019   0.00244
  57        4PY        -0.00000  -0.00059  -0.00096   0.00264  -0.00007
  58        4PZ         0.00042  -0.00000  -0.00000   0.00000   0.00000
                          26        27        28        29        30
  26        2PZ         0.00000
  27        3S          0.00000   0.00000
  28        3PX         0.00000   0.00000   0.00000
  29        3PY         0.00000   0.00000   0.00000   0.00000
  30        3PZ         0.00000   0.00000   0.00000   0.00000   0.00000
  31        4S          0.00000   0.00000   0.00000   0.00000   0.00000
  32        4PX         0.00000   0.00000   0.00000   0.00000   0.00000
  33        4PY         0.00000   0.00000   0.00000   0.00000   0.00000
  34        4PZ         0.00000   0.00000   0.00000   0.00000   0.00000
  35 3   H  1S         -0.00000  -0.00000  -0.00000  -0.00000  -0.00000
  36        2S         -0.00001  -0.00002  -0.00015  -0.00005  -0.00014
  37        3S         -0.00027   0.00187  -0.00091  -0.00074  -0.00177
  38        4PX        -0.00000  -0.00000   0.00000   0.00000  -0.00000
  39        4PY        -0.00000  -0.00000  -0.00000  -0.00000  -0.00000
  40        4PZ        -0.00000  -0.00000  -0.00000  -0.00000  -0.00000
  41 4   H  1S         -0.00000  -0.00000  -0.00000  -0.00000  -0.00000
  42        2S          0.00000  -0.00014  -0.00015  -0.00017   0.00000
  43        3S         -0.00000  -0.00127   0.00114  -0.00153  -0.00000
  44        4PX         0.00000  -0.00000   0.00000  -0.00000   0.00000
  45        4PY        -0.00000  -0.00000  -0.00000  -0.00000  -0.00000
  46        4PZ        -0.00000   0.00000   0.00000  -0.00000  -0.00000
  47 5   H  1S         -0.00000  -0.00000  -0.00000  -0.00000  -0.00000
  48        2S         -0.00001  -0.00002  -0.00015  -0.00005  -0.00014
  49        3S         -0.00027   0.00187  -0.00091  -0.00074  -0.00177
  50        4PX        -0.00000  -0.00000   0.00000   0.00000  -0.00000
  51        4PY        -0.00000  -0.00000  -0.00000  -0.00000  -0.00000
  52        4PZ        -0.00000  -0.00000  -0.00000  -0.00000  -0.00000
  53 6   H  1S          0.00000   0.01304   0.01503   0.02780   0.00000
  54        2S          0.00000   0.02040   0.02703   0.03276   0.00000
  55        3S          0.00000  -0.00020   0.00255   0.00318   0.00000
  56        4PX         0.00000   0.00190  -0.00009   0.00802   0.00000
  57        4PY         0.00000   0.01138   0.00879  -0.00019   0.00000
  58        4PZ         0.00131   0.00000   0.00000   0.00000   0.00637
                          31        32        33        34        35
  31        4S          0.00000
  32        4PX         0.00000   0.00000
  33        4PY         0.00000   0.00000   0.00000
  34        4PZ         0.00000   0.00000   0.00000   0.00000
  35 3   H  1S         -0.00004  -0.00023  -0.00006  -0.00014   0.00000
  36        2S         -0.00058  -0.00308  -0.00103  -0.00300   0.00000
  37        3S          0.00555  -0.00496  -0.00381  -0.00957   0.00000
  38        4PX        -0.00000   0.00004   0.00001  -0.00003   0.00000
  39        4PY        -0.00001  -0.00004   0.00000  -0.00006   0.00000
  40        4PZ        -0.00001  -0.00013  -0.00005  -0.00006   0.00000
  41 4   H  1S         -0.00018  -0.00021  -0.00011  -0.00000  -0.00000
  42        2S         -0.00342  -0.00198  -0.00241   0.00000  -0.00009
  43        3S         -0.00657   0.00538  -0.00748  -0.00000  -0.00119
  44        4PX        -0.00002   0.00007  -0.00006   0.00000   0.00000
  45        4PY        -0.00015  -0.00009  -0.00009  -0.00000  -0.00000
  46        4PZ         0.00000   0.00000  -0.00000  -0.00002   0.00000
  47 5   H  1S         -0.00004  -0.00023  -0.00006  -0.00014  -0.00000
  48        2S         -0.00058  -0.00308  -0.00103  -0.00300  -0.00011
  49        3S          0.00555  -0.00496  -0.00381  -0.00957  -0.00152
  50        4PX        -0.00000   0.00004   0.00001  -0.00003  -0.00000
  51        4PY        -0.00001  -0.00004   0.00000  -0.00006  -0.00000
  52        4PZ        -0.00001  -0.00013  -0.00005  -0.00006  -0.00000
  53 6   H  1S          0.00109   0.01344   0.02957   0.00000  -0.00000
  54        2S         -0.02810   0.03659   0.04163   0.00000   0.00000
  55        3S         -0.01785   0.00565   0.00687   0.00000  -0.00002
  56        4PX        -0.00107  -0.00089   0.00468   0.00000  -0.00000
  57        4PY         0.00466   0.00495   0.00065   0.00000  -0.00000
  58        4PZ         0.00000   0.00000   0.00000   0.01055  -0.00000
                          36        37        38        39        40
  36        2S          0.00000
  37        3S          0.00000   0.00000
  38        4PX         0.00000   0.00000   0.00000
  39        4PY         0.00000   0.00000   0.00000   0.00000
  40        4PZ         0.00000   0.00000   0.00000   0.00000   0.00000
  41 4   H  1S         -0.00009  -0.00128  -0.00000   0.00000  -0.00000
  42        2S         -0.00224  -0.00910  -0.00000  -0.00000  -0.00007
  43        3S         -0.00805  -0.01406  -0.00000  -0.00008  -0.00022
  44        4PX         0.00000   0.00000  -0.00000   0.00000   0.00000
  45        4PY        -0.00010  -0.00045  -0.00000   0.00000  -0.00000
  46        4PZ         0.00003   0.00008   0.00000   0.00000   0.00000
  47 5   H  1S         -0.00011  -0.00152   0.00000   0.00000  -0.00000
  48        2S         -0.00283  -0.01099   0.00000   0.00000  -0.00010
  49        3S         -0.01099  -0.01740   0.00000   0.00000  -0.00043
  50        4PX        -0.00000  -0.00000  -0.00000   0.00000  -0.00000
  51        4PY        -0.00000  -0.00000   0.00000  -0.00000  -0.00000
  52        4PZ        -0.00010  -0.00043   0.00000   0.00000  -0.00000
  53 6   H  1S         -0.00000  -0.00016  -0.00000   0.00000  -0.00000
  54        2S         -0.00001  -0.00073  -0.00000   0.00000  -0.00000
  55        3S         -0.00019  -0.00114  -0.00001   0.00000  -0.00001
  56        4PX        -0.00000  -0.00010  -0.00000   0.00000  -0.00000
  57        4PY        -0.00000  -0.00000   0.00000   0.00000  -0.00000
  58        4PZ        -0.00000  -0.00008  -0.00000  -0.00000  -0.00000
                          41        42        43        44        45
  41 4   H  1S          0.00000
  42        2S          0.00000   0.00000
  43        3S          0.00000   0.00000   0.00000
  44        4PX         0.00000   0.00000   0.00000   0.00000
  45        4PY         0.00000   0.00000   0.00000   0.00000   0.00000
  46        4PZ         0.00000   0.00000   0.00000   0.00000   0.00000
  47 5   H  1S         -0.00000  -0.00009  -0.00119   0.00000  -0.00000
  48        2S         -0.00009  -0.00224  -0.00805   0.00000  -0.00010
  49        3S         -0.00128  -0.00910  -0.01406   0.00000  -0.00045
  50        4PX        -0.00000  -0.00000  -0.00000  -0.00000  -0.00000
  51        4PY         0.00000  -0.00000  -0.00008   0.00000   0.00000
  52        4PZ        -0.00000  -0.00007  -0.00022   0.00000  -0.00000
  53 6   H  1S          0.00000   0.00000   0.00012   0.00000   0.00000
  54        2S          0.00000   0.00005   0.00068   0.00000   0.00000
  55        3S          0.00007   0.00071   0.00132   0.00001   0.00003
  56        4PX         0.00000   0.00000   0.00006   0.00000   0.00000
  57        4PY         0.00000   0.00000  -0.00001  -0.00000   0.00000
  58        4PZ         0.00000   0.00000   0.00000  -0.00000   0.00000
                          46        47        48        49        50
  46        4PZ         0.00000
  47 5   H  1S          0.00000   0.00000
  48        2S          0.00003   0.00000   0.00000
  49        3S          0.00008   0.00000   0.00000   0.00000
  50        4PX         0.00000   0.00000   0.00000   0.00000   0.00000
  51        4PY         0.00000   0.00000   0.00000   0.00000   0.00000
  52        4PZ         0.00000   0.00000   0.00000   0.00000   0.00000
  53 6   H  1S         -0.00000  -0.00000  -0.00000  -0.00016  -0.00000
  54        2S         -0.00000   0.00000  -0.00001  -0.00073  -0.00000
  55        3S         -0.00000  -0.00002  -0.00019  -0.00114  -0.00001
  56        4PX        -0.00000  -0.00000  -0.00000  -0.00010  -0.00000
  57        4PY        -0.00000  -0.00000  -0.00000  -0.00000   0.00000
  58        4PZ        -0.00000  -0.00000  -0.00000  -0.00008  -0.00000
                          51        52        53        54        55
  51        4PY         0.00000
  52        4PZ         0.00000   0.00000
  53 6   H  1S          0.00000  -0.00000   0.00000
  54        2S          0.00000  -0.00000   0.00000   0.00000
  55        3S          0.00000  -0.00001   0.00000   0.00000   0.00000
  56        4PX         0.00000  -0.00000   0.00000   0.00000   0.00000
  57        4PY         0.00000  -0.00000   0.00000   0.00000   0.00000
  58        4PZ        -0.00000  -0.00000   0.00000   0.00000   0.00000
                          56        57        58
  56        4PX         0.00000
  57        4PY         0.00000   0.00000
  58        4PZ         0.00000   0.00000   0.00000
     Bonding Gross orbital populations:
                           1
   1 1   Si 1S          0.00010
   2        2S          0.00090
   3        3S         -0.00874
   4        4S         -0.03493
   5        5S          0.27979
   6        6S          0.07654
   7        7PX        -0.00096
   8        7PY        -0.00093
   9        7PZ        -0.00092
  10        8PX        -0.01335
  11        8PY        -0.01293
  12        8PZ        -0.01268
  13        9PX         0.09725
  14        9PY         0.09185
  15        9PZ         0.09078
  16       10PX         0.07189
  17       10PY         0.22069
  18       10PZ         0.21821
  19       11PX         0.01733
  20       11PY         0.05786
  21       11PZ         0.04469
  22 2   O  1S         -0.00108
  23        2S         -0.00179
  24        2PX         0.01825
  25        2PY         0.01579
  26        2PZ         0.00316
  27        3S          0.03438
  28        3PX         0.09733
  29        3PY         0.07976
  30        3PZ         0.01768
  31        4S         -0.05761
  32        4PX         0.11579
  33        4PY         0.10312
  34        4PZ         0.03813
  35 3   H  1S          0.04753
  36        2S          0.15250
  37        3S         -0.01099
  38        4PX         0.00190
  39        4PY         0.00285
  40        4PZ         0.00688
  41 4   H  1S          0.05233
  42        2S          0.17966
  43        3S          0.02810
  44        4PX         0.00162
  45        4PY         0.01009
  46        4PZ         0.00068
  47 5   H  1S          0.04753
  48        2S          0.15250
  49        3S         -0.01099
  50        4PX         0.00190
  51        4PY         0.00285
  52        4PZ         0.00688
  53 6   H  1S          0.10449
  54        2S          0.12791
  55        3S         -0.00457
  56        4PX         0.01483
  57        4PY         0.03091
  58        4PZ         0.01861
          Bonding Condensed to atoms (all electrons):
               1          2          3          4          5          6
     1  Si   0.000000   0.217445   0.310486   0.362741   0.310486  -0.018693
     2  O    0.217445   0.000000  -0.023906  -0.019466  -0.023906   0.312755
     3  H    0.310486  -0.023906   0.000000  -0.036917  -0.046523  -0.002464
     4  H    0.362741  -0.019466  -0.036917   0.000000  -0.036917   0.003047
     5  H    0.310486  -0.023906  -0.046523  -0.036917   0.000000  -0.002464
     6  H   -0.018693   0.312755  -0.002464   0.003047  -0.002464   0.000000
 Bonding Mulliken charges:
               1
     1  Si  12.817535
     2  O    7.537079
     3  H    0.799323
     4  H    0.727511
     5  H    0.799323
     6  H    0.707819
 Sum of Bonding Mulliken charges =  23.38859
 Bonding Mulliken charges with hydrogens summed into heavy atoms:
               1
     1  Si  15.143692
     2  O    8.244898
 APT charges:
               1
     1  Si   1.358959
     2  O   -0.842099
     3  H   -0.292193
     4  H   -0.245209
     5  H   -0.292193
     6  H    0.312734
 Sum of APT charges =   0.00000
 APT charges with hydrogens summed into heavy atoms:
               1
     1  Si   0.529365
     2  O   -0.529365
 Electronic spatial extent (au):  <R**2>=            146.3783
 Charge=             -0.0000 electrons
 Dipole moment (field-independent basis, Debye):
    X=              0.4894    Y=              1.6083    Z=              0.0000  Tot=              1.6811
 Quadrupole moment (field-independent basis, Debye-Ang):
   XX=            -20.2448   YY=            -20.7865   ZZ=            -22.0725
   XY=             -3.5042   XZ=             -0.0000   YZ=              0.0000
 Traceless Quadrupole moment (field-independent basis, Debye-Ang):
   XX=              0.7898   YY=              0.2481   ZZ=             -1.0379
   XY=             -3.5042   XZ=             -0.0000   YZ=              0.0000
 Octapole moment (field-independent basis, Debye-Ang**2):
  XXX=             -7.0741  YYY=              1.1684  ZZZ=              0.0000  XYY=             -3.7364
  XXY=              5.4791  XXZ=              0.0000  XZZ=             -2.1856  YZZ=             -1.2991
  YYZ=              0.0000  XYZ=             -0.0000
 Hexadecapole moment (field-independent basis, Debye-Ang**3):
 XXXX=           -107.0493 YYYY=            -46.8014 ZZZZ=            -47.0461 XXXY=            -11.8811
 XXXZ=             -0.0000 YYYX=             -3.1535 YYYZ=             -0.0000 ZZZX=             -0.0000
 ZZZY=              0.0000 XXYY=            -26.7203 XXZZ=            -29.9239 YYZZ=            -15.9958
 XXYZ=              0.0000 YYXZ=             -0.0000 ZZXY=             -1.7610
 N-N= 6.302088016547D+01 E-N=-9.989251398999D+02  KE= 3.664358903178D+02
 Orbital energies and kinetic energies (alpha):
                                 1                 2
   1         O               -66.137003         92.133023
   2         O               -19.109777         29.133032
   3         O                -5.310864         13.028803
   4         O                -3.670826         12.205986
   5         O                -3.667721         12.216265
   6         O                -3.667715         12.215680
   7         O                -0.992792          2.700504
   8         O                -0.576223          1.629069
   9         O                -0.473458          1.651663
  10         O                -0.379748          1.183166
  11         O                -0.377177          1.323966
  12         O                -0.323253          1.855029
  13         O                -0.299446          1.941759
  14         V                -0.006859          0.904408
  15         V                 0.054530          1.090868
  16         V                 0.065095          0.630484
  17         V                 0.075557          0.724393
  18         V                 0.078184          0.821463
  19         V                 0.140692          0.790536
  20         V                 0.142695          0.788331
  21         V                 0.227564          1.574474
  22         V                 0.282009          0.980502
  23         V                 0.350612          0.979516
  24         V                 0.367106          1.006633
  25         V                 0.445428          1.943261
  26         V                 0.448993          1.501371
  27         V                 0.802241          2.496570
  28         V                 0.810410          2.646904
  29         V                 0.906838          2.883056
  30         V                 0.951832          3.324946
  31         V                 0.965643          3.162768
  32         V                 0.975026          3.274820
  33         V                 1.196360          3.621856
  34         V                 1.244959          1.902207
  35         V                 1.263120          1.894470
  36         V                 1.271659          1.987764
  37         V                 1.365806          2.066544
  38         V                 1.462883          2.503693
  39         V                 1.482378          2.586775
  40         V                 1.526667          2.611296
  41         V                 1.659043          2.697581
  42         V                 1.680122          2.818627
  43         V                 1.680539          2.767813
  44         V                 1.775285          3.145500
  45         V                 2.046745          4.010687
  46         V                 2.353246          4.007024
  47         V                 2.360002          3.988421
  48         V                 2.415180          3.842214
  49         V                 2.494603          4.172453
  50         V                 4.803895         11.672193
  51         V                 4.822985         11.933040
  52         V                 5.141744         12.353324
  53         V                 5.516020         20.587549
  54         V                11.262484         36.663503
  55         V                11.283523         36.688171
  56         V                11.294402         36.695831
  57         V                49.804276        123.756232
  58         V               140.927125        365.786628
 Total kinetic energy from orbitals= 3.664358903178D+02
  Exact polarizability:  27.989  -0.420  27.905  -0.000  -0.000  26.268
 Approx polarizability:  35.505   0.272  34.970   0.000  -0.000  31.727
 Calling FoFJK, ICntrl=    100127 FMM=F ISym2X=0 I1Cent= 0 IOpClX= 0 NMat=1 NMatS=1 NMatT=0.
 Full mass-weighted force constant matrix:
 Low frequencies ---  -11.1030   -7.9930   -0.0030    0.0015    0.0023    4.7690
 Low frequencies ---  221.6499  664.0680  715.9396
 Diagonal vibrational polarizability:
       17.6291591       6.6981407      94.6208331
 Diagonal vibrational hyperpolarizability:
      -21.9681457      -1.6601029       0.0000143
 Harmonic frequencies (cm**-1), IR intensities (KM/Mole), Raman scattering
 activities (A**4/AMU), depolarization ratios for plane and unpolarized
 incident light, reduced masses (AMU), force constants (mDyne/A),
 and normal coordinates:
                           1         2         3         4         5
                           A         A         A         A         A
       Frequencies ---   221.5732  664.0676  715.9395  731.2669  882.3524
    Reduced masses ---     1.0812    1.5115    1.1833    1.7637    1.5107
   Force constants ---     0.0313    0.3927    0.3573    0.5557    0.6930
    IR Intensities ---   158.8889  167.4418   77.7267   65.9872   34.6588
  Raman Activities ---     3.3185    3.9355   19.7670   17.4020   10.6318
    Depol. (Plane) ---     0.7500    0.2965    0.7500    0.4118    0.7258
    Depol. (Unpol) ---     0.8571    0.4574    0.8571    0.5833    0.8411
 Coord Atom Element:
   1     1    14          0.00000  -0.06493   0.00000  -0.08264  -0.08028
   2     1    14          0.00000   0.01598   0.00000  -0.06757   0.02871
   3     1    14          0.00247   0.00000   0.06085   0.00000   0.00000
   1     2     8         -0.00000   0.15612  -0.00000   0.15307   0.12528
   2     2     8         -0.00000   0.03445  -0.00000   0.08064  -0.06913
   3     2     8         -0.06987  -0.00000  -0.07102  -0.00000  -0.00000
   1     3     1         -0.08237   0.17256   0.65892  -0.43029   0.00870
   2     3     1          0.16177  -0.15705   0.01069   0.20320   0.01019
   3     3     1         -0.05200   0.00230  -0.22849  -0.00890  -0.02661
   1     4     1          0.00000  -0.42403   0.00000   0.67807  -0.50968
   2     4     1          0.00000  -0.11814  -0.00000   0.20803  -0.11979
   3     4     1          0.20532  -0.00000  -0.13236  -0.00000  -0.00000
   1     5     1          0.08237   0.17256  -0.65892  -0.43029   0.00870
   2     5     1         -0.16177  -0.15705  -0.01069   0.20320   0.01019
   3     5     1         -0.05200  -0.00230  -0.22849   0.00890   0.02661
   1     6     1          0.00000  -0.59657   0.00000   0.04724   0.73264
   2     6     1          0.00000  -0.55805   0.00000  -0.01850   0.39949
   3     6     1          0.93895   0.00000   0.02725   0.00000   0.00000
                           6         7         8         9        10
                           A         A         A         A         A
       Frequencies ---   950.2057  974.9200 1028.8894 2211.4807 2221.4425
    Reduced masses ---     1.0494    1.0642    1.1009    1.0506    1.0310
   Force constants ---     0.5583    0.5959    0.6866    3.0272    2.9977
    IR Intensities ---    87.3099  103.1569  224.8123  153.1772   79.7678
  Raman Activities ---    31.0191   27.6520   21.9809   92.0168  206.0595
    Depol. (Plane) ---     0.7500    0.7500    0.7285    0.7500    0.0985
    Depol. (Unpol) ---     0.8571    0.8571    0.8429    0.8571    0.1793
 Coord Atom Element:
   1     1    14         -0.00000   0.02278  -0.05804   0.00000  -0.01648
   2     1    14          0.00000  -0.03835  -0.00586   0.00000  -0.02425
   3     1    14         -0.03924  -0.00000   0.00000  -0.03981  -0.00000
   1     2     8          0.00000  -0.00937  -0.00021  -0.00000  -0.00032
   2     2     8         -0.00000   0.00962  -0.00910   0.00000  -0.00040
   3     2     8          0.00219  -0.00000   0.00000   0.00006   0.00000
   1     3     1          0.18198  -0.02042   0.55743   0.23983   0.23618
   2     3     1         -0.37607   0.56275   0.04462   0.34750   0.33046
   3     3     1          0.13013  -0.32704  -0.27869   0.56629   0.57826
   1     4     1         -0.00000  -0.33476   0.42399  -0.00000  -0.00951
   2     4     1         -0.00000  -0.14634   0.16590   0.00000   0.01794
   3     4     1          0.78447   0.00000  -0.00000  -0.02116  -0.00000
   1     5     1         -0.18198  -0.02042   0.55743  -0.23983   0.23618
   2     5     1          0.37607   0.56275   0.04462  -0.34750   0.33046
   3     5     1          0.13013   0.32704   0.27869   0.56629  -0.57826
   1     6     1          0.00000  -0.10819   0.07582  -0.00000  -0.00036
   2     6     1          0.00000  -0.06731   0.05192  -0.00000   0.00076
   3     6     1          0.00984   0.00000  -0.00000  -0.00733  -0.00000
                          11        12
                           A         A
       Frequencies ---  2277.4509 3920.8912
    Reduced masses ---     1.0400    1.0677
   Force constants ---     3.1781    9.6709
    IR Intensities ---    75.7524   72.3066
  Raman Activities ---   140.1516   99.5674
    Depol. (Plane) ---     0.2229    0.2834
    Depol. (Unpol) ---     0.3645    0.4417
 Coord Atom Element:
   1     1    14          0.01246  -0.00088
   2     1    14         -0.03219  -0.00077
   3     1    14          0.00000  -0.00000
   1     2     8         -0.00006   0.04056
   2     2     8          0.00010  -0.04845
   3     2     8         -0.00000  -0.00000
   1     3     1         -0.00658  -0.00321
   2     3     1         -0.02292   0.00001
   3     3     1         -0.01536  -0.00032
   1     4     1         -0.33095   0.00030
   2     4     1          0.94215   0.00283
   3     4     1          0.00000  -0.00000
   1     5     1         -0.00658  -0.00321
   2     5     1         -0.02292   0.00001
   3     5     1          0.01536   0.00032
   1     6     1         -0.00089  -0.61311
   2     6     1         -0.00435   0.78745
   3     6     1          0.00000   0.00000
 Harmonic frequencies (cm**-1), IR intensities (KM/Mole), Raman scattering
 activities (A**4/AMU), depolarization ratios for plane and unpolarized
 incident light, reduced masses (AMU), force constants (mDyne/A),
 and normal coordinates:
                      1                      2                      3
                      A                      A                      A
 Frequencies --    221.5732               664.0676               715.9395
 Red. masses --      1.0812                 1.5115                 1.1833
 Frc consts  --      0.0313                 0.3927                 0.3573
 IR Inten    --    158.8889               167.4418                77.7267
 Raman Activ --      3.3185                 3.9355                19.7670
 Depolar (P) --      0.7500                 0.2965                 0.7500
 Depolar (U) --      0.8571                 0.4574                 0.8571
  Atom  AN      X      Y      Z        X      Y      Z        X      Y      Z
     1  14     0.00   0.00   0.00    -0.06   0.02   0.00     0.00   0.00   0.06
     2   8    -0.00  -0.00  -0.07     0.16   0.03  -0.00    -0.00  -0.00  -0.07
     3   1    -0.08   0.16  -0.05     0.17  -0.16   0.00     0.66   0.01  -0.23
     4   1     0.00   0.00   0.21    -0.42  -0.12  -0.00     0.00  -0.00  -0.13
     5   1     0.08  -0.16  -0.05     0.17  -0.16  -0.00    -0.66  -0.01  -0.23
     6   1     0.00   0.00   0.94    -0.60  -0.56   0.00     0.00   0.00   0.03
                      4                      5                      6
                      A                      A                      A
 Frequencies --    731.2669               882.3524               950.2057
 Red. masses --      1.7637                 1.5107                 1.0494
 Frc consts  --      0.5557                 0.6930                 0.5583
 IR Inten    --     65.9872                34.6588                87.3099
 Raman Activ --     17.4020                10.6318                31.0191
 Depolar (P) --      0.4118                 0.7258                 0.7500
 Depolar (U) --      0.5833                 0.8411                 0.8571
  Atom  AN      X      Y      Z        X      Y      Z        X      Y      Z
     1  14    -0.08  -0.07   0.00    -0.08   0.03   0.00    -0.00   0.00  -0.04
     2   8     0.15   0.08  -0.00     0.13  -0.07  -0.00     0.00  -0.00   0.00
     3   1    -0.43   0.20  -0.01     0.01   0.01  -0.03     0.18  -0.38   0.13
     4   1     0.68   0.21  -0.00    -0.51  -0.12  -0.00    -0.00  -0.00   0.78
     5   1    -0.43   0.20   0.01     0.01   0.01   0.03    -0.18   0.38   0.13
     6   1     0.05  -0.02   0.00     0.73   0.40   0.00     0.00   0.00   0.01
                      7                      8                      9
                      A                      A                      A
 Frequencies --    974.9200              1028.8894              2211.4807
 Red. masses --      1.0642                 1.1009                 1.0506
 Frc consts  --      0.5959                 0.6866                 3.0272
 IR Inten    --    103.1569               224.8123               153.1772
 Raman Activ --     27.6520                21.9809                92.0168
 Depolar (P) --      0.7500                 0.7285                 0.7500
 Depolar (U) --      0.8571                 0.8429                 0.8571
  Atom  AN      X      Y      Z        X      Y      Z        X      Y      Z
     1  14     0.02  -0.04  -0.00    -0.06  -0.01   0.00     0.00   0.00  -0.04
     2   8    -0.01   0.01  -0.00    -0.00  -0.01   0.00    -0.00   0.00   0.00
     3   1    -0.02   0.56  -0.33     0.56   0.04  -0.28     0.24   0.35   0.57
     4   1    -0.33  -0.15   0.00     0.42   0.17  -0.00    -0.00   0.00  -0.02
     5   1    -0.02   0.56   0.33     0.56   0.04   0.28    -0.24  -0.35   0.57
     6   1    -0.11  -0.07   0.00     0.08   0.05  -0.00    -0.00  -0.00  -0.01
                     10                     11                     12
                      A                      A                      A
 Frequencies --   2221.4425              2277.4509              3920.8912
 Red. masses --      1.0310                 1.0400                 1.0677
 Frc consts  --      2.9977                 3.1781                 9.6709
 IR Inten    --     79.7678                75.7524                72.3066
 Raman Activ --    206.0595               140.1516                99.5674
 Depolar (P) --      0.0985                 0.2229                 0.2834
 Depolar (U) --      0.1793                 0.3645                 0.4417
  Atom  AN      X      Y      Z        X      Y      Z        X      Y      Z
     1  14    -0.02  -0.02  -0.00     0.01  -0.03   0.00    -0.00  -0.00  -0.00
     2   8    -0.00  -0.00   0.00    -0.00   0.00  -0.00     0.04  -0.05  -0.00
     3   1     0.24   0.33   0.58    -0.01  -0.02  -0.02    -0.00   0.00  -0.00
     4   1    -0.01   0.02  -0.00    -0.33   0.94   0.00     0.00   0.00  -0.00
     5   1     0.24   0.33  -0.58    -0.01  -0.02   0.02    -0.00   0.00   0.00
     6   1    -0.00   0.00  -0.00    -0.00  -0.00   0.00    -0.61   0.79   0.00

 -------------------
 - Thermochemistry -
 -------------------
 Temperature   298.150 Kelvin.  Pressure   1.00000 Atm.
 Atom     1 has atomic number 14 and mass  27.97693
 Atom     2 has atomic number  8 and mass  15.99491
 Atom     3 has atomic number  1 and mass   1.00783
 Atom     4 has atomic number  1 and mass   1.00783
 Atom     5 has atomic number  1 and mass   1.00783
 Atom     6 has atomic number  1 and mass   1.00783
 Molecular mass:    48.00314 amu.
 Principal axes and moments of inertia in atomic units:
                           1         2         3
     Eigenvalues --    22.98469 140.91488 143.28992
           X            0.99913  -0.04163  -0.00000
           Y            0.04163   0.99913   0.00000
           Z            0.00000  -0.00000   1.00000
 This molecule is an asymmetric top.
 Rotational symmetry number  1.
 Rotational temperatures (Kelvin)      3.76833     0.61465     0.60447
 Rotational constants (GHZ):          78.51929    12.80731    12.59503
 Zero-point vibrational energy     100489.2 (Joules/Mol)
                                   24.01749 (Kcal/Mol)
 Warning -- explicit consideration of   1 degrees of freedom as
           vibrations may cause significant error
 Vibrational temperatures:    318.79   955.45  1030.08  1052.13  1269.51
          (Kelvin)           1367.13  1402.69  1480.34  3181.83  3196.16
                             3276.74  5641.29
 
 Zero-point correction=                           0.038274 (Hartree/Particle)
 Thermal correction to Energy=                    0.042146
 Thermal correction to Enthalpy=                  0.043090
 Thermal correction to Gibbs Free Energy=         0.013819
 Sum of electronic and zero-point Energies=           -367.122693
 Sum of electronic and thermal Energies=              -367.118821
 Sum of electronic and thermal Enthalpies=            -367.117877
 Sum of electronic and thermal Free Energies=         -367.147148
 
                     E (Thermal)             CV                S
                      KCal/Mol        Cal/Mol-Kelvin    Cal/Mol-Kelvin
 Total                   26.447             11.965             61.607
 Electronic               0.000              0.000              0.000
 Translational            0.889              2.981             37.530
 Rotational               0.889              2.981             20.767
 Vibrational             24.670              6.003              3.309
 Vibration     1          0.648              1.808              1.946
                       Q            Log10(Q)             Ln(Q)
 Total Bot       0.440249D-06         -6.356301        -14.635924
 Total V=0       0.177274D+12         11.248644         25.900960
 Vib (Bot)       0.436706D-17        -17.359811        -39.972441
 Vib (Bot)    1  0.892132D+00         -0.049571         -0.114141
 Vib (V=0)       0.175847D+01          0.245134          0.564443
 Vib (V=0)    1  0.152269D+01          0.182612          0.420480
 Electronic      0.100000D+01          0.000000          0.000000
 Translational   0.130725D+08          7.116358         16.386021
 Rotational      0.771172D+04          3.887151          8.950496
 -------------------------------------------------------------------
 Center     Atomic                   Forces (Hartrees/Bohr)
 Number     Number              X              Y              Z
 -------------------------------------------------------------------
      1       14           0.000001709    0.000005321   -0.000000000
      2        8           0.000001085   -0.000008870    0.000000000
      3        1          -0.000004979    0.000005597    0.000000778
      4        1           0.000011087    0.000005966   -0.000000000
      5        1          -0.000004979    0.000005597   -0.000000778
      6        1          -0.000003923   -0.000013610   -0.000000000
 -------------------------------------------------------------------
 Cartesian Forces:  Max     0.000013610 RMS     0.000005695
 FormGI is forming the generalized inverse of G from B-inverse, IUseBI=4.

 GradGradGradGradGradGradGradGradGradGradGradGradGradGradGradGradGradGrad
 Berny optimization.
 Internal  Forces:  Max     0.000002267 RMS     0.000000800
 Search for a local minimum.
 Step number   1 out of a maximum of    2
 All quantities printed in internal units (Hartrees-Bohrs-Radians)
 Second derivative matrix not updated -- analytic derivatives used.
 The second derivative matrix:
                          R1        R2        R3        R4        R5
           R1           0.25908
           R2           0.00350   0.18133
           R3           0.00265   0.00232   0.19136
           R4           0.00350   0.00271   0.00232   0.18133
           R5          -0.00815  -0.00054  -0.00070  -0.00054   0.55135
           A1           0.00746   0.00243  -0.00237  -0.00301  -0.00376
           A2           0.01960  -0.00255   0.00204  -0.00255   0.00540
           A3           0.00746  -0.00301  -0.00237   0.00243  -0.00376
           A4          -0.01129   0.00276   0.00280  -0.00291   0.00043
           A5          -0.01213   0.00312  -0.00254   0.00312   0.00137
           A6          -0.01129  -0.00291   0.00280   0.00276   0.00043
           A7           0.05111   0.00017   0.00030   0.00017   0.02417
           D1          -0.00249   0.00065  -0.00336   0.00299  -0.00183
           D2           0.00000   0.00371   0.00000  -0.00371  -0.00000
           D3           0.00249  -0.00299   0.00336  -0.00065   0.00183
                          A1        A2        A3        A4        A5
           A1           0.10315
           A2          -0.01673   0.10447
           A3          -0.01536  -0.01673   0.10315
           A4          -0.02611  -0.02939  -0.01330   0.05681
           A5          -0.03271  -0.01220  -0.03271   0.00731   0.06151
           A6          -0.01330  -0.02939  -0.02611   0.00659   0.00731
           A7          -0.00278   0.00612  -0.00278   0.00006  -0.00053
           D1           0.00216  -0.02001   0.01879  -0.01825   0.01630
           D2           0.01583   0.00000  -0.01583   0.01807   0.00000
           D3          -0.01879   0.02001  -0.00216   0.00073  -0.01630
                          A6        A7        D1        D2        D3
           A6           0.05681
           A7           0.00006   0.07264
           D1          -0.00073  -0.00235   0.02355
           D2          -0.01807  -0.00000  -0.00964   0.02066
           D3           0.01825   0.00235  -0.01276  -0.00964   0.02355
 ITU=  0
     Eigenvalues ---    0.00122   0.05734   0.07167   0.07430   0.12602
     Eigenvalues ---    0.13096   0.14074   0.17988   0.18375   0.19304
     Eigenvalues ---    0.27897   0.55285
 Angle between quadratic step and forces=  14.90 degrees.
 Linear search not attempted -- first point.
 Iteration  1 RMS(Cart)=  0.00001245 RMS(Int)=  0.00000000
 Iteration  2 RMS(Cart)=  0.00000000 RMS(Int)=  0.00000000
 Variable       Old X    -DE/DX   Delta X   Delta X   Delta X     New X
                                 (Linear)    (Quad)   (Total)
    R1        3.25269   0.00000   0.00000   0.00000   0.00000   3.25269
    R2        2.79783  -0.00000   0.00000  -0.00000  -0.00000   2.79782
    R3        2.77937   0.00000   0.00000   0.00000   0.00000   2.77937
    R4        2.79783  -0.00000   0.00000  -0.00000  -0.00000   2.79782
    R5        1.81349  -0.00000   0.00000  -0.00000  -0.00000   1.81349
    A1        1.95606  -0.00000   0.00000  -0.00001  -0.00001   1.95605
    A2        1.83499   0.00000   0.00000   0.00000   0.00000   1.83499
    A3        1.95606  -0.00000   0.00000  -0.00001  -0.00001   1.95605
    A4        1.91732  -0.00000   0.00000  -0.00001  -0.00001   1.91731
    A5        1.88201   0.00000   0.00000   0.00003   0.00003   1.88204
    A6        1.91732  -0.00000   0.00000  -0.00001  -0.00001   1.91731
    A7        2.13259   0.00000   0.00000   0.00000   0.00000   2.13260
    D1        1.05942   0.00000   0.00000   0.00001   0.00001   1.05944
    D2        3.14159   0.00000   0.00000   0.00000   0.00000   3.14159
    D3       -1.05942  -0.00000   0.00000  -0.00001  -0.00001  -1.05944
         Item               Value     Threshold  Converged?
 Maximum Force            0.000002     0.000015     YES
 RMS     Force            0.000001     0.000010     YES
 Maximum Displacement     0.000022     0.000060     YES
 RMS     Displacement     0.000012     0.000040     YES
 Predicted change in Energy=-5.628811D-11
 Optimization completed.
    -- Stationary point found.
                           ----------------------------
                           !   Optimized Parameters   !
                           ! (Angstroms and Degrees)  !
 --------------------------                            --------------------------
 ! Name  Definition              Value          Derivative Info.                !
 --------------------------------------------------------------------------------
 ! R1    R(1,2)                  1.7212         -DE/DX =    0.0                 !
 ! R2    R(1,3)                  1.4805         -DE/DX =    0.0                 !
 ! R3    R(1,4)                  1.4708         -DE/DX =    0.0                 !
 ! R4    R(1,5)                  1.4805         -DE/DX =    0.0                 !
 ! R5    R(2,6)                  0.9597         -DE/DX =    0.0                 !
 ! A1    A(2,1,3)              112.074          -DE/DX =    0.0                 !
 ! A2    A(2,1,4)              105.1372         -DE/DX =    0.0                 !
 ! A3    A(2,1,5)              112.074          -DE/DX =    0.0                 !
 ! A4    A(3,1,4)              109.8546         -DE/DX =    0.0                 !
 ! A5    A(3,1,5)              107.8312         -DE/DX =    0.0                 !
 ! A6    A(4,1,5)              109.8546         -DE/DX =    0.0                 !
 ! A7    A(1,2,6)              122.1887         -DE/DX =    0.0                 !
 ! D1    D(3,1,2,6)             60.7005         -DE/DX =    0.0                 !
 ! D2    D(4,1,2,6)            180.0            -DE/DX =    0.0                 !
 ! D3    D(5,1,2,6)            -60.7005         -DE/DX =    0.0                 !
 --------------------------------------------------------------------------------
 GradGradGradGradGradGradGradGradGradGradGradGradGradGradGradGradGradGrad


 ----------------------------------------------------------------------

 Electric dipole moment (input orientation):
 (Debye = 10**-18 statcoulomb cm , SI units = C m)
                  (au)            (Debye)         (10**-30 SI)
   Tot        0.661410D+00      0.168114D+01      0.560767D+01
   x          0.192552D+00      0.489419D+00      0.163253D+01
   y          0.632761D+00      0.160832D+01      0.536477D+01
   z          0.000000D+00      0.000000D+00      0.000000D+00

 Dipole polarizability, Alpha (input orientation).
 (esu units = cm**3 , SI units = C**2 m**2 J**-1)
 Alpha(0;0):
               (au)            (10**-24 esu)      (10**-40 SI)
   iso        0.273873D+02      0.405838D+01      0.451555D+01
   aniso      0.183085D+01      0.271303D+00      0.301866D+00
   xx         0.279889D+02      0.414753D+01      0.461475D+01
   yx        -0.419820D+00     -0.622110D-01     -0.692190D-01
   yy         0.279048D+02      0.413506D+01      0.460088D+01
   zx         0.000000D+00      0.000000D+00      0.000000D+00
   zy         0.000000D+00      0.000000D+00      0.000000D+00
   zz         0.262682D+02      0.389254D+01      0.433104D+01

 First dipole hyperpolarizability, Beta (input orientation).
 ||, _|_  parallel and perpendicular components, (z) with respect to z axis,
 vector components x,y,z.  Values do not include the 1/n! factor of 1/2.
 (esu units = statvolt**-1 cm**4 , SI units = C**3 m**3 J**-2)
 Beta(0;0,0):
               (au)            (10**-30 esu)      (10**-50 SI)
   || (z)     0.000000D+00      0.000000D+00      0.000000D+00
   _|_(z)     0.000000D+00      0.000000D+00      0.000000D+00
   x          0.352582D+03      0.304604D+01      0.113051D+01
   y          0.182487D+03      0.157655D+01      0.585120D+00
   z          0.000000D+00      0.000000D+00      0.000000D+00
   ||         0.794017D+02      0.685969D+00      0.254591D+00
   xxx        0.747108D+02      0.645443D+00      0.239550D+00
   xxy        0.314416D+02      0.271631D+00      0.100813D+00
   yxy        0.130172D+02      0.112459D+00      0.417379D-01
   yyy       -0.293705D+00     -0.253739D-02     -0.941726D-03
   xxz        0.000000D+00      0.000000D+00      0.000000D+00
   yxz        0.000000D+00      0.000000D+00      0.000000D+00
   yyz        0.000000D+00      0.000000D+00      0.000000D+00
   zxz        0.297994D+02      0.257444D+00      0.955477D-01
   zyz        0.296811D+02      0.256422D+00      0.951683D-01
   zzz        0.000000D+00      0.000000D+00      0.000000D+00

 ----------------------------------------------------------------------

 Dipole orientation:
    14          0.86360764         -0.26279967          0.31474443
     8         -2.03418338          0.61901111         -0.87066266
     1          0.69968974         -2.57635290          1.87949074
     1          2.44561156         -0.74421055         -1.91917316
     1          2.01618764          1.74989925          1.87949074
     1         -3.42993637          1.04374500          0.20646946

 Electric dipole moment (dipole orientation):
 (Debye = 10**-18 statcoulomb cm , SI units = C m)
                  (au)            (Debye)         (10**-30 SI)
   Tot        0.661410D+00      0.168114D+01      0.560767D+01
   x          0.000000D+00      0.000000D+00      0.000000D+00
   y          0.000000D+00      0.000000D+00      0.000000D+00
   z          0.661410D+00      0.168114D+01      0.560767D+01

 Dipole polarizability, Alpha (dipole orientation).
 (esu units = cm**3 , SI units = C**2 m**2 J**-1)
 Alpha(0;0):
               (au)            (10**-24 esu)      (10**-40 SI)
   iso        0.273873D+02      0.405838D+01      0.451555D+01
   aniso      0.183085D+01      0.271303D+00      0.301866D+00
   xx         0.280506D+02      0.415667D+01      0.462492D+01
   yx        -0.542396D+00     -0.803748D-01     -0.894290D-01
   yy         0.264332D+02      0.391700D+01      0.435825D+01
   zx        -0.311135D+00     -0.461055D-01     -0.512993D-01
   zy         0.946798D-01      0.140301D-01      0.156106D-01
   zz         0.276781D+02      0.410146D+01      0.456349D+01

 First dipole hyperpolarizability, Beta (dipole orientation).
 ||, _|_  parallel and perpendicular components, (z) with respect to z axis,
 vector components x,y,z.  Values do not include the 1/n! factor of 1/2.
 (esu units = statvolt**-1 cm**4 , SI units = C**3 m**3 J**-2)
 Beta(0;0,0):
               (au)            (10**-30 esu)      (10**-50 SI)
   || (z)     0.554456D+02      0.479006D+00      0.177779D+00
   _|_(z)     0.184819D+02      0.159669D+00      0.592595D-01
   x          0.271875D+03      0.234879D+01      0.871728D+00
   y         -0.827327D+02     -0.714746D+00     -0.265271D+00
   z          0.277228D+03      0.239503D+01      0.888893D+00
   ||         0.794017D+02      0.685969D+00      0.254591D+00
   xxx        0.428845D+02      0.370489D+00      0.137503D+00
   xxy       -0.148199D+01     -0.128032D-01     -0.475180D-02
   yxy        0.176981D+02      0.152898D+00      0.567465D-01
   yyy       -0.169536D+02     -0.146466D+00     -0.543593D-01
   xxz        0.358152D+02      0.309415D+00      0.114836D+00
   yxz        0.382090D+00      0.330096D-02      0.122512D-02
   yyz        0.369545D+02      0.319258D+00      0.118490D+00
   zxz        0.300423D+02      0.259542D+00      0.963263D-01
   zyz       -0.914199D+01     -0.789797D-01     -0.293125D-01
   zzz        0.196396D+02      0.169671D+00      0.629716D-01

 ----------------------------------------------------------------------

 Test job not archived.
 1\1\GINC-NODE7\Freq\RB3LYP\6-311G(3d2f,3p2d)\H4O1Si1\SD\23-Dec-2025\0\
 \#N Geom=AllCheck Guess=TCheck SCRF=Check Test GenChk RB3LYP/6-311G(3d
 2f,3p2d) Freq\\H3SiOH B3LYP_6-311g\\0,1\Si,0.5054897545,0.0202736988,0
 .\O,-1.2105743005,-0.1132117364,0.\H,1.0081370475,0.7328334882,1.19650
 30363\H,0.9985017515,-1.3654124343,0.\H,1.0081370475,0.7328334882,-1.1
 965030363\H,-1.7832363005,0.6568524955,0.\\Version=ES64L-G16RevA.03\HF
 =-367.1609674\RMSD=5.643e-10\RMSF=5.695e-06\ZeroPoint=0.0382743\Therma
 l=0.0421461\Dipole=0.1925521,0.6327614,0.\DipoleDeriv=1.6221501,-0.052
 4264,0.,-0.0235869,1.1779111,0.,0.,0.,1.2768172,-1.1303199,0.032253,0.
 ,0.0026864,-0.5574123,0.,0.,0.,-0.8385662,-0.3029163,0.00137,-0.007869
 5,-0.003988,-0.2738647,-0.0205941,-0.0012095,-0.019608,-0.2997979,-0.2
 317223,-0.0105554,0.,0.0001025,-0.257566,0.,0.,0.,-0.2463372,-0.302916
 3,0.00137,0.0078695,-0.003988,-0.2738647,0.0205941,0.0012095,0.019608,
 -0.2997979,0.3457248,0.0279886,0.,0.028774,0.1847966,0.,0.,0.,0.407682
 1\Polar=27.9889188,-0.4198204,27.9047707,0.,0.,26.2681735\PolarDeriv=1
 .6017528,-0.1348568,-1.6090815,0.,0.,-1.8819669,1.3280959,-2.8471667,4
 .4385631,0.,0.,-2.6748118,0.,0.,0.,-2.3543231,-2.4275994,0.,-5.7842672
 ,-3.1082659,0.4683853,0.,0.,-0.2979542,-6.8153526,0.2960452,-4.8128022
 ,0.,0.,-0.7066557,0.,0.,0.,-2.6809709,-1.1411551,0.,3.5797262,2.096093
 ,0.5091531,3.784956,0.7217722,1.1507446,0.903768,1.8994707,3.5502107,0
 .5651849,3.1970599,2.1960255,1.6948872,0.3648386,1.990326,2.3388546,2.
 779246,8.5322616,2.1731388,-3.6912425,1.314178,0.,0.,-0.261256,-1.4908
 512,2.1751243,-10.6323342,0.,0.,-1.2941676,0.,0.,0.,1.379072,-2.803840
 7,0.,3.5797262,2.096093,0.5091531,-3.7849561,-0.7217722,1.1507447,0.90
 3768,1.8994708,3.5502107,-0.5651849,-3.1970599,2.1960255,-1.6948872,-0
 .3648386,-1.990326,2.3388546,2.7792461,-8.5322616,-5.1500768,2.7421791
 ,-1.191788,0.,0.,0.1396877,5.1705719,-3.4229443,3.9061519,0.,0.,0.2835
 84,0.,0.,0.,-1.0214873,0.8141031,0.\HyperPolar=74.7107893,31.4416473,1
 3.0172224,-0.2937054,0.,0.,0.,29.7994049,29.6811011,0.\Quadrupole=0.58
 72012,0.1844711,-0.7716723,-2.6052871,0.,0.\PG=CS [SG(H2O1Si1),X(H2)]\
 NImag=0\\0.36761356,-0.00974330,0.33226287,0.,0.,0.30523146,-0.2141701
 1,-0.01074487,0.,0.44598929,0.02611173,-0.03770672,0.,-0.26646378,0.37
 528863,0.,0.,-0.03328777,0.,0.,0.02337976,-0.04627905,-0.02028954,-0.0
 3544698,-0.00837156,-0.00754187,-0.01196284,0.04289712,-0.02247495,-0.
 06289102,-0.05483477,-0.00139147,0.00413887,-0.00091922,0.02633148,0.0
 5824483,-0.03881069,-0.05557389,-0.12308332,-0.00018650,-0.00031469,0.
 00463313,0.04226442,0.06195346,0.12693842,-0.04073207,0.04252950,0.,-0
 .01082933,0.01439196,0.,0.00466760,-0.00264378,-0.00045881,0.04402163,
 0.05000193,-0.16627258,0.,-0.00057205,0.00232643,0.,0.00181172,-0.0049
 2098,-0.00089296,-0.05210881,0.17293938,0.,0.,-0.02778284,0.,0.,0.0029
 6117,0.00232970,-0.01102743,0.00171782,0.,0.,0.02080162,-0.04627905,-0
 .02028954,0.03544698,-0.00837156,-0.00754187,0.01196284,0.00564130,0.0
 0085074,-0.00290983,0.00466760,0.00181172,-0.00232970,0.04289712,-0.02
 247495,-0.06289102,0.05483477,-0.00139147,0.00413887,0.00091922,0.0008
 5074,0.00555491,-0.00512124,-0.00264378,-0.00492098,0.01102743,0.02633
 148,0.05824483,0.03881069,0.05557389,-0.12308332,0.00018650,0.00031469
 ,0.00463313,0.00290983,0.00512124,-0.00930438,0.00045881,0.00089296,0.
 00171782,-0.04226442,-0.06195346,0.12693842,-0.02015328,0.01853776,0.,
 -0.20424673,0.24104383,0.,0.00144459,-0.00067202,0.00010142,-0.0017954
 3,-0.00094451,0.,0.00144459,-0.00067201,-0.00010142,0.22330626,-0.0214
 2046,-0.00250153,0.,0.28056364,-0.34818607,0.,-0.00116252,-0.00012661,
 -0.00005069,0.00047491,0.00084873,0.,-0.00116252,-0.00012661,0.0000506
 9,-0.25729305,0.35009211,0.,0.,0.00200578,0.,0.,-0.00231942,-0.0000941
 4,-0.00029327,-0.00090167,0.,0.,0.00058441,0.00009414,0.00029327,-0.00
 090167,0.,0.,0.00153257\\-0.00000171,-0.00000532,0.,-0.00000109,0.0000
 0887,0.,0.00000498,-0.00000560,-0.00000078,-0.00001109,-0.00000597,0.,
 0.00000498,-0.00000560,0.00000078,0.00000392,0.00001361,0.\\\@


 TIME GOES, YOU SAY?  AH NO!
 ALAS, TIME STAYS, WE GO.
    -- A. DOBSON (1840-1921)
 Job cpu time:       0 days  0 hours  1 minutes 15.3 seconds.
 Elapsed time:       0 days  0 hours  0 minutes  3.6 seconds.
 File lengths (MBytes):  RWF=      6 Int=      0 D2E=      0 Chk=      2 Scr=      1
 Normal termination of Gaussian 16 at Tue Dec 23 16:27:35 2025.
