 Entering Gaussian System, Link 0=/opt/gaussian/g16.a03/g16/g16
 Input=HCl_B3LYP_6-311g.gjf
 Output=Job.24049.log
 Initial command:
 /opt/gaussian/g16.a03/g16/l1.exe "/scr0//sd/24049/Gau-3170.inp" -scrdir="/scr0//sd/24049/"
 Default is to use a total of  24 processors:
                               24 via shared-memory
                                1 via Linda
 Entering Link 1 = /opt/gaussian/g16.a03/g16/l1.exe PID=      3172.
  
 Copyright (c) 1988,1990,1992,1993,1995,1998,2003,2009,2016,
            Gaussian, Inc.  All Rights Reserved.
  
 This is part of the Gaussian(R) 16 program.  It is based on
 the Gaussian(R) 09 system (copyright 2009, Gaussian, Inc.),
 the Gaussian(R) 03 system (copyright 2003, Gaussian, Inc.),
 the Gaussian(R) 98 system (copyright 1998, Gaussian, Inc.),
 the Gaussian(R) 94 system (copyright 1995, Gaussian, Inc.),
 the Gaussian 92(TM) system (copyright 1992, Gaussian, Inc.),
 the Gaussian 90(TM) system (copyright 1990, Gaussian, Inc.),
 the Gaussian 88(TM) system (copyright 1988, Gaussian, Inc.),
 the Gaussian 86(TM) system (copyright 1986, Carnegie Mellon
 University), and the Gaussian 82(TM) system (copyright 1983,
 Carnegie Mellon University). Gaussian is a federally registered
 trademark of Gaussian, Inc.
  
 This software contains proprietary and confidential information,
 including trade secrets, belonging to Gaussian, Inc.
  
 This software is provided under written license and may be
 used, copied, transmitted, or stored only in accord with that
 written license.
  
 The following legend is applicable only to US Government
 contracts under FAR:
  
                    RESTRICTED RIGHTS LEGEND
  
 Use, reproduction and disclosure by the US Government is
 subject to restrictions as set forth in subparagraphs (a)
 and (c) of the Commercial Computer Software - Restricted
 Rights clause in FAR 52.227-19.
  
 Gaussian, Inc.
 340 Quinnipiac St., Bldg. 40, Wallingford CT 06492
  
  
 ---------------------------------------------------------------
 Warning -- This program may not be used in any manner that
 competes with the business of Gaussian, Inc. or will provide
 assistance to any competitor of Gaussian, Inc.  The licensee
 of this program is prohibited from giving any competitor of
 Gaussian, Inc. access to this program.  By using this program,
 the user acknowledges that Gaussian, Inc. is engaged in the
 business of creating and licensing software in the field of
 computational chemistry and represents and warrants to the
 licensee that it is not a competitor of Gaussian, Inc. and that
 it will not use this program in any manner prohibited above.
 ---------------------------------------------------------------
  

 Cite this work as:
 Gaussian 16, Revision A.03,
 M. J. Frisch, G. W. Trucks, H. B. Schlegel, G. E. Scuseria, 
 M. A. Robb, J. R. Cheeseman, G. Scalmani, V. Barone, 
 G. A. Petersson, H. Nakatsuji, X. Li, M. Caricato, A. V. Marenich, 
 J. Bloino, B. G. Janesko, R. Gomperts, B. Mennucci, H. P. Hratchian, 
 J. V. Ortiz, A. F. Izmaylov, J. L. Sonnenberg, D. Williams-Young, 
 F. Ding, F. Lipparini, F. Egidi, J. Goings, B. Peng, A. Petrone, 
 T. Henderson, D. Ranasinghe, V. G. Zakrzewski, J. Gao, N. Rega, 
 G. Zheng, W. Liang, M. Hada, M. Ehara, K. Toyota, R. Fukuda, 
 J. Hasegawa, M. Ishida, T. Nakajima, Y. Honda, O. Kitao, H. Nakai, 
 T. Vreven, K. Throssell, J. A. Montgomery, Jr., J. E. Peralta, 
 F. Ogliaro, M. J. Bearpark, J. J. Heyd, E. N. Brothers, K. N. Kudin, 
 V. N. Staroverov, T. A. Keith, R. Kobayashi, J. Normand, 
 K. Raghavachari, A. P. Rendell, J. C. Burant, S. S. Iyengar, 
 J. Tomasi, M. Cossi, J. M. Millam, M. Klene, C. Adamo, R. Cammi, 
 J. W. Ochterski, R. L. Martin, K. Morokuma, O. Farkas, 
 J. B. Foresman, and D. J. Fox, Gaussian, Inc., Wallingford CT, 2016.
 
 ******************************************
 Gaussian 16:  ES64L-G16RevA.03 25-Dec-2016
                23-Dec-2025 
 ******************************************
 %NProcLinda=1
 Will use up to    1 processors via Linda.
 %NProcShared=24
 Will use up to   24 processors via shared memory.
 %mem=50GB
 %chk=HCl_B3LYP_6-311g.chk
 Default route: MaxDisk=1200GB
 ----------------------------------------------------------------------
 # B3LYP/6-311g(3d2f,3p2d) SCF=Tight opt=(tight,maxcycles=300) freq=(ra
 man,hpmodes) nosymm int=finegrid density pop=(full,bonding) iop(6/80=1
 )
 ----------------------------------------------------------------------
 1/6=300,7=10,18=20,19=15,26=3,38=1/1,3;
 2/9=110,12=2,15=1,17=6,18=5,40=1/2;
 3/5=4,6=6,7=707,11=2,25=1,30=1,71=1,74=-5,75=-4/1,2,3;
 4//1;
 5/5=2,32=2,38=5/2;
 6/7=3,22=-1,27=20,28=1,80=1/1;
 7/30=1/1,2,3,16;
 1/6=300,7=10,18=20,19=15,26=3/3(2);
 2/9=110,15=1/2;
 99//99;
 2/9=110,15=1/2;
 3/5=4,6=6,7=707,11=2,25=1,30=1,71=1,74=-5,75=-4/1,2,3;
 4/5=5,16=3,69=1/1;
 5/5=2,32=2,38=5/2;
 7/30=1/1,2,3,16;
 1/6=300,7=10,18=20,19=15,26=3/3(-5);
 2/9=110,15=1/2;
 6/7=3,19=2,22=-1,27=20,28=1,80=1/1;
 99/9=1/99;
 ---------------------------
 HCl B3LYP/6-311g(3d2f,3p2d)
 ---------------------------
 Symbolic Z-matrix:
 Charge =  0 Multiplicity = 1
 Cl                    0.04098   0.        0. 
 H                    -1.24098   0.        0. 
 

 GradGradGradGradGradGradGradGradGradGradGradGradGradGradGradGradGradGrad
 Berny optimization.
 Initialization pass.
                           ----------------------------
                           !    Initial Parameters    !
                           ! (Angstroms and Degrees)  !
 --------------------------                            --------------------------
 ! Name  Definition              Value          Derivative Info.                !
 --------------------------------------------------------------------------------
 ! R1    R(1,2)                  1.282          estimate D2E/DX2                !
 --------------------------------------------------------------------------------
 Trust Radius=3.00D-01 FncErr=1.00D-07 GrdErr=1.00D-06 EigMax=2.50D+02 EigMin=1.00D-04
 Number of steps in this run=    100 maximum allowed number of steps=    100.
 GradGradGradGradGradGradGradGradGradGradGradGradGradGradGradGradGradGrad

                          Input orientation:                          
 ---------------------------------------------------------------------
 Center     Atomic      Atomic             Coordinates (Angstroms)
 Number     Number       Type             X           Y           Z
 ---------------------------------------------------------------------
      1         17           0        0.040977    0.000000    0.000000
      2          1           0       -1.240977    0.000000    0.000000
 ---------------------------------------------------------------------
 Symmetry turned off by external request.
 Stoichiometry    ClH
 Framework group  C*V[C*(HCl)]
 Deg. of freedom     1
 Full point group                 C*V     NOp   4
 Rotational constants (GHZ):           0.0000000         313.9256811         313.9256811
 Standard basis: 6-311G(3d2f,3p2d) (5D, 7F)
    27 basis functions,    51 primitive gaussians,    27 cartesian basis functions
     9 alpha electrons        9 beta electrons
       nuclear repulsion energy         7.0174222988 Hartrees.
 NAtoms=    2 NActive=    2 NUniq=    2 SFac= 1.00D+00 NAtFMM=   60 NAOKFM=F Big=F
 Integral buffers will be    131072 words long.
 Raffenetti 2 integral format.
 Two-electron integral symmetry is turned off.
 One-electron integrals computed using PRISM.
 NBasis=    27 RedAO= T EigKep=  3.13D-02  NBF=    27
 NBsUse=    27 1.00D-06 EigRej= -1.00D+00 NBFU=    27
 ExpMin= 1.03D-01 ExpMax= 1.06D+05 ExpMxC= 3.62D+03 IAcc=2 IRadAn=         4 AccDes= 0.00D+00
 Harris functional with IExCor=  402 and IRadAn=       4 diagonalized for initial guess.
 HarFok:  IExCor=  402 AccDes= 0.00D+00 IRadAn=         4 IDoV= 1 UseB2=F ITyADJ=14
 ICtDFT=  3500011 ScaDFX=  1.000000  1.000000  1.000000  1.000000
 FoFCou: FMM=F IPFlag=           0 FMFlag=      100000 FMFlg1=           0
         NFxFlg=           0 DoJE=T BraDBF=F KetDBF=T FulRan=T
         wScrn=  0.000000 ICntrl=       500 IOpCl=  0 I1Cent=   200000004 NGrid=           0
         NMat0=    1 NMatS0=      1 NMatT0=    0 NMatD0=    1 NMtDS0=    0 NMtDT0=    0
 Symmetry not used in FoFCou.
 Keep R1 ints in memory in canonical form, NReq=20705102.
 Requested convergence on RMS density matrix=1.00D-08 within 128 cycles.
 Requested convergence on MAX density matrix=1.00D-06.
 Requested convergence on             energy=1.00D-06.
 No special actions if energy rises.
 Integral accuracy reduced to 1.0D-05 until final iterations.
 Initial convergence to 1.0D-05 achieved.  Increase integral accuracy.
 SCF Done:  E(RB3LYP) =  -460.825473321     A.U. after   10 cycles
            NFock= 10  Conv=0.38D-08     -V/T= 2.0023

 **********************************************************************

            Population analysis using the SCF density.

 **********************************************************************

 Alpha  occ. eigenvalues -- -101.56739  -9.48301  -7.24748  -7.23728  -7.23728
 Alpha  occ. eigenvalues --   -0.86191  -0.47851  -0.34121  -0.34121
 Alpha virt. eigenvalues --   -0.00820   0.19502   0.27585   0.27585   0.29369
 Alpha virt. eigenvalues --    0.72677   1.20980   1.20980   1.52602   2.00027
 Alpha virt. eigenvalues --    2.09441   2.09441   2.30277   9.49583  25.35461
 Alpha virt. eigenvalues --   25.35461  25.53918 215.44984
     Molecular Orbital Coefficients:
                           1         2         3         4         5
                           O         O         O         O         O
     Eigenvalues --  -101.56739  -9.48301  -7.24748  -7.23728  -7.23728
   1 1   Cl 1S          0.41161  -0.12179  -0.00141  -0.00000   0.00000
   2        2S          0.65408  -0.32688  -0.00386  -0.00000   0.00000
   3        3S          0.01496   0.49701   0.00641   0.00000  -0.00000
   4        4S         -0.00389   0.61184   0.00661  -0.00000   0.00000
   5        5S          0.00130   0.05494  -0.00005   0.00000  -0.00000
   6        6S         -0.00064  -0.01595   0.00028   0.00000   0.00000
   7        7PX        -0.00013  -0.00888   0.80441   0.00000   0.00000
   8        7PY         0.00000  -0.00000  -0.00000   0.68063   0.42959
   9        7PZ         0.00000   0.00000   0.00000  -0.42959   0.68063
  10        8PX        -0.00002   0.00295  -0.27254  -0.00000  -0.00000
  11        8PY         0.00000   0.00000   0.00000  -0.23067  -0.14559
  12        8PZ         0.00000   0.00000  -0.00000   0.14559  -0.23067
  13        9PX         0.00015  -0.00086   0.05350   0.00000   0.00000
  14        9PY        -0.00000   0.00000  -0.00000   0.04418   0.02788
  15        9PZ        -0.00000  -0.00000   0.00000  -0.02788   0.04418
  16       10PX        -0.00019  -0.00178  -0.00148   0.00000   0.00000
  17       10PY         0.00000  -0.00000   0.00000  -0.00069  -0.00043
  18       10PZ         0.00000   0.00000  -0.00000   0.00043  -0.00069
  19       11PX         0.00018   0.00334   0.00005  -0.00000  -0.00000
  20       11PY        -0.00000   0.00000  -0.00000   0.00001   0.00001
  21       11PZ        -0.00000  -0.00000   0.00000  -0.00001   0.00001
  22 2   H  1S          0.00002   0.00015  -0.00002  -0.00000  -0.00000
  23        2S         -0.00009  -0.00124  -0.00064   0.00000   0.00000
  24        3S          0.00026   0.00531   0.00009  -0.00000  -0.00000
  25        4PX        -0.00008  -0.00121  -0.00040   0.00000   0.00000
  26        4PY        -0.00000   0.00000  -0.00000   0.00005   0.00003
  27        4PZ        -0.00000  -0.00000   0.00000  -0.00003   0.00005
                           6         7         8         9        10
                           O         O         O         O         V
     Eigenvalues --    -0.86191  -0.47851  -0.34121  -0.34121  -0.00820
   1 1   Cl 1S          0.03618   0.01326   0.00000   0.00000  -0.01182
   2        2S          0.10353   0.03812   0.00000   0.00000  -0.03453
   3        3S         -0.20955  -0.07888  -0.00000  -0.00000   0.07608
   4        4S         -0.39011  -0.14458   0.00000   0.00000   0.12110
   5        5S          0.61184   0.21401  -0.00000  -0.00000  -0.14613
   6        6S          0.46564   0.34121  -0.00000   0.00000  -0.89022
   7        7PX         0.04455  -0.18695   0.00000   0.00000  -0.11621
   8        7PY         0.00000   0.00000  -0.16203  -0.16110  -0.00000
   9        7PZ        -0.00000   0.00000   0.16110  -0.16203  -0.00000
  10        8PX        -0.01582   0.06885  -0.00000   0.00000   0.04490
  11        8PY         0.00000   0.00000   0.06118   0.06083  -0.00000
  12        8PZ        -0.00000   0.00000  -0.06083   0.06118  -0.00000
  13        9PX        -0.05529   0.22200  -0.00000  -0.00000   0.13417
  14        9PY        -0.00000  -0.00000   0.18659   0.18552   0.00000
  15        9PZ        -0.00000  -0.00000  -0.18552   0.18659   0.00000
  16       10PX        -0.06238   0.37700   0.00000   0.00000   0.37272
  17       10PY         0.00000   0.00000   0.40641   0.40408  -0.00000
  18       10PZ         0.00000   0.00000  -0.40408   0.40641  -0.00000
  19       11PX        -0.01721   0.16143   0.00000  -0.00000   0.71195
  20       11PY        -0.00000  -0.00000   0.24553   0.24412  -0.00000
  21       11PZ        -0.00000  -0.00000  -0.24412   0.24553  -0.00000
  22 2   H  1S          0.09639  -0.15735   0.00000  -0.00000   0.11547
  23        2S          0.14158  -0.34165   0.00000   0.00000   0.28736
  24        3S         -0.00829  -0.04642  -0.00000  -0.00000   1.42229
  25        4PX         0.04121  -0.05028   0.00000   0.00000   0.00112
  26        4PY        -0.00000   0.00000   0.02075   0.02063  -0.00000
  27        4PZ         0.00000  -0.00000  -0.02063   0.02075  -0.00000
                          11        12        13        14        15
                           V         V         V         V         V
     Eigenvalues --     0.19502   0.27585   0.27585   0.29369   0.72677
   1 1   Cl 1S         -0.00191   0.00000   0.00000  -0.00667  -0.03395
   2        2S         -0.00566   0.00000   0.00000  -0.01898  -0.09276
   3        3S          0.01338  -0.00000   0.00000   0.03745   0.14924
   4        4S          0.01549  -0.00000  -0.00000   0.08967   0.62369
   5        5S          0.06582   0.00000   0.00000  -0.24378  -2.31146
   6        6S         -0.24499  -0.00000  -0.00000  -0.17250   2.76918
   7        7PX        -0.00929  -0.00000   0.00000   0.15229  -0.05710
   8        7PY         0.00000  -0.09535   0.10681  -0.00000  -0.00000
   9        7PZ         0.00000   0.10681   0.09535  -0.00000  -0.00000
  10        8PX         0.00422   0.00000  -0.00000  -0.07045   0.01526
  11        8PY        -0.00000   0.04403  -0.04933  -0.00000  -0.00000
  12        8PZ        -0.00000  -0.04933  -0.04403  -0.00000  -0.00000
  13        9PX        -0.01084   0.00000  -0.00000  -0.09486   0.16832
  14        9PY        -0.00000   0.06722  -0.07531   0.00000   0.00000
  15        9PZ        -0.00000  -0.07531  -0.06722   0.00000   0.00000
  16       10PX         0.11484   0.00000  -0.00000  -1.05506  -0.11536
  17       10PY        -0.00000   0.61847  -0.69287   0.00000  -0.00000
  18       10PZ        -0.00000  -0.69287  -0.61847  -0.00000  -0.00000
  19       11PX         0.76962  -0.00000   0.00000   1.37272  -0.77966
  20       11PY         0.00000  -0.82208   0.92097  -0.00000   0.00000
  21       11PZ         0.00000   0.92097   0.82208  -0.00000   0.00000
  22 2   H  1S          0.12355   0.00000  -0.00000  -0.08339   0.09182
  23        2S          1.38683   0.00000  -0.00000  -0.64065  -0.14160
  24        3S         -0.92544  -0.00000   0.00000   1.19342  -1.30704
  25        4PX         0.10752   0.00000  -0.00000  -0.03022  -0.22069
  26        4PY        -0.00000   0.00031  -0.00035  -0.00000   0.00000
  27        4PZ        -0.00000  -0.00035  -0.00031   0.00000   0.00000
                          16        17        18        19        20
                           V         V         V         V         V
     Eigenvalues --     1.20980   1.20980   1.52602   2.00027   2.09441
   1 1   Cl 1S          0.00000   0.00000  -0.01266  -0.00529  -0.00000
   2        2S          0.00000   0.00000  -0.03550  -0.01438  -0.00000
   3        3S         -0.00000  -0.00000   0.06587   0.02219   0.00000
   4        4S         -0.00000  -0.00000   0.21743   0.11533   0.00000
   5        5S          0.00000   0.00000  -0.54978  -0.42286  -0.00000
   6        6S         -0.00000  -0.00000  -0.17335   0.31345   0.00000
   7        7PX        -0.00000  -0.00000   0.03935   0.38284   0.00000
   8        7PY         0.03287  -0.02821   0.00000   0.00000   0.25697
   9        7PZ         0.02821   0.03287   0.00000   0.00000  -0.43782
  10        8PX         0.00000   0.00000   0.00458  -0.09512  -0.00000
  11        8PY        -0.01135   0.00974   0.00000  -0.00000  -0.06304
  12        8PZ        -0.00974  -0.01135   0.00000  -0.00000   0.10740
  13        9PX         0.00000  -0.00000  -0.35453  -1.44865  -0.00000
  14        9PY        -0.06972   0.05983  -0.00000  -0.00000  -0.96416
  15        9PZ        -0.05983  -0.06972  -0.00000  -0.00000   1.64270
  16       10PX        -0.00000   0.00000   1.20300   1.69510   0.00000
  17       10PY        -0.02983   0.02560   0.00000   0.00000   0.93665
  18       10PZ        -0.02560  -0.02983   0.00000   0.00000  -1.59584
  19       11PX         0.00000  -0.00000  -0.35497  -0.54218  -0.00000
  20       11PY        -0.13473   0.11562  -0.00000  -0.00000  -0.29864
  21       11PZ        -0.11562  -0.13473  -0.00000  -0.00000   0.50881
  22 2   H  1S         -0.00000   0.00000   0.19587  -0.97522  -0.00000
  23        2S          0.00000   0.00000   0.14044   1.64531   0.00000
  24        3S          0.00000   0.00000   0.20031  -0.90966  -0.00000
  25        4PX        -0.00000   0.00000   1.25996   0.12681   0.00000
  26        4PY         0.77510  -0.66517   0.00000  -0.00000  -0.06128
  27        4PZ         0.66517   0.77510  -0.00000  -0.00000   0.10441
                          21        22        23        24        25
                           V         V         V         V         V
     Eigenvalues --     2.09441   2.30277   9.49583  25.35461  25.35461
   1 1   Cl 1S         -0.00000  -0.00185   0.11851  -0.00000   0.00000
   2        2S         -0.00000  -0.00449   0.48056  -0.00000   0.00000
   3        3S          0.00000   0.00200  -2.64608   0.00000   0.00000
   4        4S          0.00000   0.06182   3.09306  -0.00000  -0.00000
   5        5S         -0.00000  -0.16935  -1.69726   0.00000   0.00000
   6        6S          0.00000  -0.16302   0.85931  -0.00000  -0.00000
   7        7PX         0.00000  -0.33515  -0.00287  -0.00000  -0.00000
   8        7PY        -0.43782  -0.00000  -0.00000  -0.94684  -1.97265
   9        7PZ        -0.25697  -0.00000  -0.00000  -1.97265   0.94684
  10        8PX        -0.00000   0.08211  -0.00913  -0.00000  -0.00000
  11        8PY         0.10740   0.00000   0.00000  -0.75850  -1.58027
  12        8PZ         0.06304  -0.00000  -0.00000  -1.58027   0.75850
  13        9PX        -0.00000   1.27133  -0.04717   0.00000   0.00000
  14        9PY         1.64270   0.00000   0.00000   1.00261   2.08885
  15        9PZ         0.96416   0.00000   0.00000   2.08885  -1.00261
  16       10PX         0.00000  -0.96899   0.18007  -0.00000  -0.00000
  17       10PY        -1.59584  -0.00000  -0.00000  -0.46818  -0.97541
  18       10PZ        -0.93665  -0.00000  -0.00000  -0.97541   0.46818
  19       11PX        -0.00000   0.51446  -0.21812   0.00000   0.00000
  20       11PY         0.50881   0.00000   0.00000   0.12265   0.25554
  21       11PZ         0.29864   0.00000   0.00000   0.25554  -0.12265
  22 2   H  1S         -0.00000  -1.22156  -0.02892  -0.00000  -0.00000
  23        2S          0.00000   1.46254   0.13099  -0.00000  -0.00000
  24        3S         -0.00000  -0.32503  -0.33396   0.00000   0.00000
  25        4PX         0.00000   0.27987   0.12114   0.00000   0.00000
  26        4PY         0.10441   0.00000   0.00000   0.01208   0.02518
  27        4PZ         0.06128   0.00000   0.00000   0.02518  -0.01208
                          26        27
                           V         V
     Eigenvalues --    25.53918 215.44984
   1 1   Cl 1S         -0.00125  -1.54174
   2        2S         -0.00369   1.91525
   3        3S          0.02710  -1.43946
   4        4S         -0.04285   0.96342
   5        5S          0.05884  -0.38254
   6        6S         -0.10104   0.19012
   7        7PX        -2.20480   0.00498
   8        7PY         0.00000  -0.00000
   9        7PZ         0.00000  -0.00000
  10        8PX        -1.75968   0.00274
  11        8PY         0.00000  -0.00000
  12        8PZ         0.00000  -0.00000
  13        9PX         2.36437  -0.01544
  14        9PY        -0.00000   0.00000
  15        9PZ        -0.00000   0.00000
  16       10PX        -1.14732   0.03974
  17       10PY         0.00000  -0.00000
  18       10PZ         0.00000  -0.00000
  19       11PX         0.35082  -0.04889
  20       11PY        -0.00000   0.00000
  21       11PZ        -0.00000   0.00000
  22 2   H  1S         -0.05299  -0.00592
  23        2S         -0.08004   0.02703
  24        3S          0.16819  -0.07457
  25        4PX         0.02179   0.02425
  26        4PY        -0.00000   0.00000
  27        4PZ        -0.00000   0.00000
     Density Matrix:
                           1         2         3         4         5
   1 1   Cl 1S          0.37148
   2        2S          0.62659   1.09372
   3        3S         -0.12602  -0.35480   0.59483
   4        4S         -0.18432  -0.49693   0.79445   1.09499
   5        5S          0.03763   0.10878  -0.23553  -0.47204   0.84635
   6        6S          0.04609   0.13201  -0.26484  -0.48147   0.71409
   7        7PX        -0.00195  -0.00560   0.01230   0.01908  -0.02656
   8        7PY         0.00000   0.00000   0.00000  -0.00000   0.00000
   9        7PZ         0.00000   0.00000  -0.00000   0.00000  -0.00000
  10        8PX         0.00072   0.00212  -0.00480  -0.00757   0.01047
  11        8PY         0.00000   0.00000  -0.00000   0.00000   0.00000
  12        8PZ         0.00000   0.00000   0.00000  -0.00000   0.00000
  13        9PX         0.00206   0.00582  -0.01201  -0.02140   0.02726
  14        9PY        -0.00000  -0.00000   0.00000   0.00000  -0.00000
  15        9PZ        -0.00000  -0.00000  -0.00000   0.00000  -0.00000
  16       10PX         0.00577   0.01676  -0.03513  -0.06254   0.08483
  17       10PY         0.00000   0.00000  -0.00000  -0.00000   0.00000
  18       10PZ         0.00000   0.00000  -0.00000  -0.00000   0.00000
  19       11PX         0.00237   0.00680  -0.01493  -0.02917   0.04841
  20       11PY        -0.00000  -0.00000   0.00000   0.00000  -0.00000
  21       11PZ        -0.00000  -0.00000   0.00000   0.00000  -0.00000
  22 2   H  1S          0.00278   0.00789  -0.01543  -0.02952   0.05062
  23        2S          0.00142   0.00397  -0.00668  -0.01320   0.02688
  24        3S         -0.00291  -0.00839   0.01608   0.02638  -0.02943
  25        4PX         0.00188   0.00539  -0.01055  -0.01910   0.02878
  26        4PY        -0.00000  -0.00000  -0.00000   0.00000  -0.00000
  27        4PZ        -0.00000  -0.00000   0.00000   0.00000  -0.00000
                           6         7         8         9        10
   6        6S          0.66700
   7        7PX        -0.08535   1.36817
   8        7PY         0.00000   0.00000   1.40003
   9        7PZ         0.00000  -0.00000  -0.00000   1.40003
  10        8PX         0.03201  -0.46567   0.00000  -0.00000   0.15856
  11        8PY        -0.00000  -0.00000  -0.47852   0.00000  -0.00000
  12        8PZ        -0.00000   0.00000   0.00000  -0.47852   0.00000
  13        9PX         0.10006  -0.00185  -0.00000   0.00000   0.00315
  14        9PY        -0.00000  -0.00000  -0.03615   0.00000   0.00000
  15        9PZ        -0.00000   0.00000  -0.00000  -0.03615  -0.00000
  16       10PX         0.19924  -0.14887   0.00000  -0.00000   0.05468
  17       10PY         0.00000   0.00000  -0.26320   0.00000  -0.00000
  18       10PZ         0.00000  -0.00000   0.00000  -0.26320   0.00000
  19       11PX         0.09403  -0.06187  -0.00000   0.00000   0.02277
  20       11PY        -0.00000  -0.00000  -0.15819  -0.00000   0.00000
  21       11PZ        -0.00000   0.00000  -0.00000  -0.15819   0.00000
  22 2   H  1S         -0.01762   0.06739  -0.00000  -0.00000  -0.02470
  23        2S         -0.10126   0.13936   0.00000   0.00000  -0.05119
  24        3S         -0.03957   0.01667  -0.00000  -0.00000  -0.00615
  25        4PX         0.00410   0.02185   0.00000   0.00000  -0.00802
  26        4PY         0.00000  -0.00000  -0.01327  -0.00000   0.00000
  27        4PZ        -0.00000   0.00000  -0.00000  -0.01327  -0.00000
                          11        12        13        14        15
  11        8PY         0.16370
  12        8PZ        -0.00000   0.16370
  13        9PX         0.00000  -0.00000   0.11040
  14        9PY         0.01690  -0.00000  -0.00000   0.14392
  15        9PZ        -0.00000   0.01690  -0.00000   0.00000   0.14392
  16       10PX        -0.00000   0.00000   0.17413  -0.00000  -0.00000
  17       10PY         0.09934  -0.00000   0.00000   0.30151  -0.00000
  18       10PZ        -0.00000   0.09934  -0.00000  -0.00000   0.30151
  19       11PX         0.00000  -0.00000   0.07358  -0.00000  -0.00000
  20       11PY         0.05974   0.00000  -0.00000   0.18221  -0.00000
  21       11PZ         0.00000   0.05974  -0.00000   0.00000   0.18221
  22 2   H  1S          0.00000  -0.00000  -0.08052   0.00000   0.00000
  23        2S         -0.00000  -0.00000  -0.16741   0.00000   0.00000
  24        3S          0.00000  -0.00000  -0.01969  -0.00000  -0.00000
  25        4PX        -0.00000  -0.00000  -0.02692   0.00000   0.00000
  26        4PY         0.00502   0.00000   0.00000   0.01540   0.00000
  27        4PZ         0.00000   0.00502  -0.00000   0.00000   0.01540
                          16        17        18        19        20
  16       10PX         0.29205
  17       10PY         0.00000   0.65691
  18       10PZ         0.00000  -0.00000   0.65691
  19       11PX         0.12385  -0.00000  -0.00000   0.05274
  20       11PY         0.00000   0.39686  -0.00000  -0.00000   0.23976
  21       11PZ         0.00000   0.00000   0.39686  -0.00000   0.00000
  22 2   H  1S         -0.13067  -0.00000   0.00000  -0.05412   0.00000
  23        2S         -0.27526   0.00000  -0.00000  -0.11519   0.00000
  24        3S         -0.03398  -0.00000  -0.00000  -0.01467  -0.00000
  25        4PX        -0.04305   0.00000   0.00000  -0.01766   0.00000
  26        4PY         0.00000   0.03354   0.00000   0.00000   0.02026
  27        4PZ        -0.00000   0.00000   0.03354  -0.00000   0.00000
                          21        22        23        24        25
  21       11PZ         0.23976
  22 2   H  1S         -0.00000   0.06810
  23        2S         -0.00000   0.13481   0.27354
  24        3S         -0.00000   0.01301   0.02935   0.00450
  25        4PX        -0.00000   0.02377   0.04603   0.00397   0.00846
  26        4PY         0.00000  -0.00000  -0.00000  -0.00000  -0.00000
  27        4PZ         0.02026   0.00000   0.00000   0.00000   0.00000
                          26        27
  26        4PY         0.00171
  27        4PZ         0.00000   0.00171
    Full Mulliken population analysis:
                           1         2         3         4         5
   1 1   Cl 1S          0.37148
   2        2S          0.45399   1.09372
   3        3S         -0.02881  -0.20991   0.59483
   4        4S         -0.02160  -0.16992   0.67644   1.09499
   5        5S          0.00144   0.01299  -0.09281  -0.31706   0.84635
   6        6S          0.00076   0.00695  -0.04899  -0.16971   0.57162
   7        7PX         0.00000   0.00000   0.00000   0.00000   0.00000
   8        7PY         0.00000   0.00000   0.00000   0.00000   0.00000
   9        7PZ         0.00000   0.00000   0.00000   0.00000   0.00000
  10        8PX         0.00000   0.00000   0.00000   0.00000   0.00000
  11        8PY         0.00000   0.00000   0.00000   0.00000   0.00000
  12        8PZ         0.00000   0.00000   0.00000   0.00000   0.00000
  13        9PX         0.00000   0.00000   0.00000   0.00000   0.00000
  14        9PY         0.00000   0.00000   0.00000   0.00000   0.00000
  15        9PZ         0.00000   0.00000   0.00000   0.00000   0.00000
  16       10PX         0.00000   0.00000   0.00000   0.00000   0.00000
  17       10PY         0.00000   0.00000   0.00000   0.00000   0.00000
  18       10PZ         0.00000   0.00000   0.00000   0.00000   0.00000
  19       11PX         0.00000   0.00000   0.00000   0.00000   0.00000
  20       11PY         0.00000   0.00000   0.00000   0.00000   0.00000
  21       11PZ         0.00000   0.00000   0.00000   0.00000   0.00000
  22 2   H  1S          0.00000   0.00000  -0.00002  -0.00021   0.00451
  23        2S          0.00001   0.00005  -0.00030  -0.00122   0.00760
  24        3S         -0.00002  -0.00016   0.00108   0.00353  -0.01089
  25        4PX         0.00000   0.00004  -0.00036  -0.00158   0.00774
  26        4PY         0.00000   0.00000   0.00000   0.00000   0.00000
  27        4PZ         0.00000   0.00000   0.00000   0.00000   0.00000
                           6         7         8         9        10
   6        6S          0.66700
   7        7PX         0.00000   1.36817
   8        7PY         0.00000   0.00000   1.40003
   9        7PZ         0.00000   0.00000   0.00000   1.40003
  10        8PX         0.00000   0.24195   0.00000   0.00000   0.15856
  11        8PY         0.00000   0.00000   0.24863   0.00000   0.00000
  12        8PZ         0.00000   0.00000   0.00000   0.24863   0.00000
  13        9PX         0.00000  -0.00113   0.00000   0.00000   0.00046
  14        9PY         0.00000   0.00000  -0.02209   0.00000   0.00000
  15        9PZ         0.00000   0.00000   0.00000  -0.02209   0.00000
  16       10PX         0.00000  -0.04087   0.00000   0.00000   0.00694
  17       10PY         0.00000   0.00000  -0.07226   0.00000   0.00000
  18       10PZ         0.00000   0.00000   0.00000  -0.07226   0.00000
  19       11PX         0.00000  -0.00442   0.00000   0.00000   0.00091
  20       11PY         0.00000   0.00000  -0.01130   0.00000   0.00000
  21       11PZ         0.00000   0.00000   0.00000  -0.01130   0.00000
  22 2   H  1S         -0.00365  -0.00075   0.00000   0.00000   0.00025
  23        2S         -0.04785  -0.00811   0.00000   0.00000   0.00170
  24        3S         -0.02527  -0.00048   0.00000   0.00000   0.00010
  25        4PX         0.00101  -0.00193   0.00000   0.00000   0.00043
  26        4PY         0.00000   0.00000  -0.00020   0.00000   0.00000
  27        4PZ         0.00000   0.00000   0.00000  -0.00020   0.00000
                          11        12        13        14        15
  11        8PY         0.16370
  12        8PZ         0.00000   0.16370
  13        9PX         0.00000   0.00000   0.11040
  14        9PY         0.00244   0.00000   0.00000   0.14392
  15        9PZ         0.00000   0.00244   0.00000   0.00000   0.14392
  16       10PX         0.00000   0.00000   0.12988   0.00000   0.00000
  17       10PY         0.01262   0.00000   0.00000   0.22490   0.00000
  18       10PZ         0.00000   0.01262   0.00000   0.00000   0.22490
  19       11PX         0.00000   0.00000   0.01973   0.00000   0.00000
  20       11PY         0.00240   0.00000   0.00000   0.04887   0.00000
  21       11PZ         0.00000   0.00240   0.00000   0.00000   0.04887
  22 2   H  1S          0.00000   0.00000   0.00761   0.00000   0.00000
  23        2S          0.00000   0.00000   0.03678   0.00000   0.00000
  24        3S          0.00000   0.00000   0.00222   0.00000   0.00000
  25        4PX         0.00000   0.00000   0.00840   0.00000   0.00000
  26        4PY         0.00005   0.00000   0.00000   0.00118   0.00000
  27        4PZ         0.00000   0.00005   0.00000   0.00000   0.00118
                          16        17        18        19        20
  16       10PX         0.29205
  17       10PY         0.00000   0.65691
  18       10PZ         0.00000   0.00000   0.65691
  19       11PX         0.07831   0.00000   0.00000   0.05274
  20       11PY         0.00000   0.25094   0.00000   0.00000   0.23976
  21       11PZ         0.00000   0.00000   0.25094   0.00000   0.00000
  22 2   H  1S          0.04056   0.00000   0.00000   0.01718   0.00000
  23        2S          0.13468   0.00000   0.00000   0.06906   0.00000
  24        3S          0.00992   0.00000   0.00000   0.00833   0.00000
  25        4PX         0.01669   0.00000   0.00000   0.00044   0.00000
  26        4PY         0.00000   0.00661   0.00000   0.00000   0.00420
  27        4PZ         0.00000   0.00000   0.00661   0.00000   0.00000
                          21        22        23        24        25
  21       11PZ         0.23976
  22 2   H  1S          0.00000   0.06810
  23        2S          0.00000   0.09523   0.27354
  24        3S          0.00000   0.00486   0.02316   0.00450
  25        4PX         0.00000   0.00000   0.00000   0.00000   0.00846
  26        4PY         0.00000   0.00000   0.00000   0.00000   0.00000
  27        4PZ         0.00420   0.00000   0.00000   0.00000   0.00000
                          26        27
  26        4PY         0.00171
  27        4PZ         0.00000   0.00171
     Gross orbital populations:
                           1
   1 1   Cl 1S          0.77726
   2        2S          1.18776
   3        3S          0.89115
   4        4S          1.09368
   5        5S          1.03148
   6        6S          0.95187
   7        7PX         1.55242
   8        7PY         1.54280
   9        7PZ         1.54280
  10        8PX         0.41130
  11        8PY         0.42984
  12        8PZ         0.42984
  13        9PX         0.31436
  14        9PY         0.39922
  15        9PZ         0.39922
  16       10PX         0.66818
  17       10PY         1.07971
  18       10PZ         1.07971
  19       11PX         0.24229
  20       11PY         0.53487
  21       11PZ         0.53487
  22 2   H  1S          0.23366
  23        2S          0.58433
  24        3S          0.02090
  25        4PX         0.03936
  26        4PY         0.01356
  27        4PZ         0.01356
          Condensed to atoms (all electrons):
               1          2
     1  Cl  16.793796   0.300842
     2  H    0.300842   0.604520
 Mulliken charges:
               1
     1  Cl  -0.094638
     2  H    0.094638
 Sum of Mulliken charges =  -0.00000
 Mulliken charges with hydrogens summed into heavy atoms:
               1
     1  Cl  -0.000000

 Bonding Mulliken population analysis:
      Bonding Density Matrix:
                           1         2         3         4         5
   1 1   Cl 1S          0.00000
   2        2S          0.00000   0.00000
   3        3S          0.00000   0.00000   0.00000
   4        4S          0.00000   0.00000   0.00000   0.00000
   5        5S          0.00000   0.00000   0.00000   0.00000   0.00000
   6        6S          0.00000   0.00000   0.00000   0.00000   0.00000
   7        7PX         0.00000   0.00000   0.00000   0.00000   0.00000
   8        7PY         0.00000   0.00000   0.00000   0.00000   0.00000
   9        7PZ         0.00000   0.00000   0.00000   0.00000   0.00000
  10        8PX         0.00000   0.00000   0.00000   0.00000   0.00000
  11        8PY         0.00000   0.00000   0.00000   0.00000   0.00000
  12        8PZ         0.00000   0.00000   0.00000   0.00000   0.00000
  13        9PX         0.00000   0.00000   0.00000   0.00000   0.00000
  14        9PY         0.00000   0.00000   0.00000   0.00000   0.00000
  15        9PZ         0.00000   0.00000   0.00000   0.00000   0.00000
  16       10PX         0.00000   0.00000   0.00000   0.00000   0.00000
  17       10PY         0.00000   0.00000   0.00000   0.00000   0.00000
  18       10PZ         0.00000   0.00000   0.00000   0.00000   0.00000
  19       11PX         0.00000   0.00000   0.00000   0.00000   0.00000
  20       11PY         0.00000   0.00000   0.00000   0.00000   0.00000
  21       11PZ         0.00000   0.00000   0.00000   0.00000   0.00000
  22 2   H  1S          0.00278   0.00789  -0.01543  -0.02952   0.05062
  23        2S          0.00142   0.00397  -0.00668  -0.01320   0.02688
  24        3S         -0.00291  -0.00839   0.01608   0.02638  -0.02943
  25        4PX         0.00188   0.00539  -0.01055  -0.01910   0.02878
  26        4PY        -0.00000  -0.00000  -0.00000   0.00000  -0.00000
  27        4PZ        -0.00000  -0.00000   0.00000   0.00000  -0.00000
                           6         7         8         9        10
   6        6S          0.00000
   7        7PX         0.00000   0.00000
   8        7PY         0.00000   0.00000   0.00000
   9        7PZ         0.00000   0.00000   0.00000   0.00000
  10        8PX         0.00000   0.00000   0.00000   0.00000   0.00000
  11        8PY         0.00000   0.00000   0.00000   0.00000   0.00000
  12        8PZ         0.00000   0.00000   0.00000   0.00000   0.00000
  13        9PX         0.00000   0.00000   0.00000   0.00000   0.00000
  14        9PY         0.00000   0.00000   0.00000   0.00000   0.00000
  15        9PZ         0.00000   0.00000   0.00000   0.00000   0.00000
  16       10PX         0.00000   0.00000   0.00000   0.00000   0.00000
  17       10PY         0.00000   0.00000   0.00000   0.00000   0.00000
  18       10PZ         0.00000   0.00000   0.00000   0.00000   0.00000
  19       11PX         0.00000   0.00000   0.00000   0.00000   0.00000
  20       11PY         0.00000   0.00000   0.00000   0.00000   0.00000
  21       11PZ         0.00000   0.00000   0.00000   0.00000   0.00000
  22 2   H  1S         -0.01762   0.06739  -0.00000  -0.00000  -0.02470
  23        2S         -0.10126   0.13936   0.00000   0.00000  -0.05119
  24        3S         -0.03957   0.01667  -0.00000  -0.00000  -0.00615
  25        4PX         0.00410   0.02185   0.00000   0.00000  -0.00802
  26        4PY         0.00000  -0.00000  -0.01327  -0.00000   0.00000
  27        4PZ        -0.00000   0.00000  -0.00000  -0.01327  -0.00000
                          11        12        13        14        15
  11        8PY         0.00000
  12        8PZ         0.00000   0.00000
  13        9PX         0.00000   0.00000   0.00000
  14        9PY         0.00000   0.00000   0.00000   0.00000
  15        9PZ         0.00000   0.00000   0.00000   0.00000   0.00000
  16       10PX         0.00000   0.00000   0.00000   0.00000   0.00000
  17       10PY         0.00000   0.00000   0.00000   0.00000   0.00000
  18       10PZ         0.00000   0.00000   0.00000   0.00000   0.00000
  19       11PX         0.00000   0.00000   0.00000   0.00000   0.00000
  20       11PY         0.00000   0.00000   0.00000   0.00000   0.00000
  21       11PZ         0.00000   0.00000   0.00000   0.00000   0.00000
  22 2   H  1S          0.00000  -0.00000  -0.08052   0.00000   0.00000
  23        2S         -0.00000  -0.00000  -0.16741   0.00000   0.00000
  24        3S          0.00000  -0.00000  -0.01969  -0.00000  -0.00000
  25        4PX        -0.00000  -0.00000  -0.02692   0.00000   0.00000
  26        4PY         0.00502   0.00000   0.00000   0.01540   0.00000
  27        4PZ         0.00000   0.00502  -0.00000   0.00000   0.01540
                          16        17        18        19        20
  16       10PX         0.00000
  17       10PY         0.00000   0.00000
  18       10PZ         0.00000   0.00000   0.00000
  19       11PX         0.00000   0.00000   0.00000   0.00000
  20       11PY         0.00000   0.00000   0.00000   0.00000   0.00000
  21       11PZ         0.00000   0.00000   0.00000   0.00000   0.00000
  22 2   H  1S         -0.13067  -0.00000   0.00000  -0.05412   0.00000
  23        2S         -0.27526   0.00000  -0.00000  -0.11519   0.00000
  24        3S         -0.03398  -0.00000  -0.00000  -0.01467  -0.00000
  25        4PX        -0.04305   0.00000   0.00000  -0.01766   0.00000
  26        4PY         0.00000   0.03354   0.00000   0.00000   0.02026
  27        4PZ        -0.00000   0.00000   0.03354  -0.00000   0.00000
                          21        22        23        24        25
  21       11PZ         0.00000
  22 2   H  1S         -0.00000   0.00000
  23        2S         -0.00000   0.00000   0.00000
  24        3S         -0.00000   0.00000   0.00000   0.00000
  25        4PX        -0.00000   0.00000   0.00000   0.00000   0.00000
  26        4PY         0.00000   0.00000   0.00000   0.00000   0.00000
  27        4PZ         0.02026   0.00000   0.00000   0.00000   0.00000
                          26        27
  26        4PY         0.00000
  27        4PZ         0.00000   0.00000
    Full Bonding Mulliken population analysis:
                           1         2         3         4         5
   1 1   Cl 1S          0.00000
   2        2S          0.00000   0.00000
   3        3S          0.00000   0.00000   0.00000
   4        4S          0.00000   0.00000   0.00000   0.00000
   5        5S          0.00000   0.00000   0.00000   0.00000   0.00000
   6        6S          0.00000   0.00000   0.00000   0.00000   0.00000
   7        7PX         0.00000   0.00000   0.00000   0.00000   0.00000
   8        7PY         0.00000   0.00000   0.00000   0.00000   0.00000
   9        7PZ         0.00000   0.00000   0.00000   0.00000   0.00000
  10        8PX         0.00000   0.00000   0.00000   0.00000   0.00000
  11        8PY         0.00000   0.00000   0.00000   0.00000   0.00000
  12        8PZ         0.00000   0.00000   0.00000   0.00000   0.00000
  13        9PX         0.00000   0.00000   0.00000   0.00000   0.00000
  14        9PY         0.00000   0.00000   0.00000   0.00000   0.00000
  15        9PZ         0.00000   0.00000   0.00000   0.00000   0.00000
  16       10PX         0.00000   0.00000   0.00000   0.00000   0.00000
  17       10PY         0.00000   0.00000   0.00000   0.00000   0.00000
  18       10PZ         0.00000   0.00000   0.00000   0.00000   0.00000
  19       11PX         0.00000   0.00000   0.00000   0.00000   0.00000
  20       11PY         0.00000   0.00000   0.00000   0.00000   0.00000
  21       11PZ         0.00000   0.00000   0.00000   0.00000   0.00000
  22 2   H  1S          0.00000   0.00000  -0.00002  -0.00021   0.00451
  23        2S          0.00001   0.00005  -0.00030  -0.00122   0.00760
  24        3S         -0.00002  -0.00016   0.00108   0.00353  -0.01089
  25        4PX         0.00000   0.00004  -0.00036  -0.00158   0.00774
  26        4PY         0.00000   0.00000   0.00000   0.00000   0.00000
  27        4PZ         0.00000   0.00000   0.00000   0.00000   0.00000
                           6         7         8         9        10
   6        6S          0.00000
   7        7PX         0.00000   0.00000
   8        7PY         0.00000   0.00000   0.00000
   9        7PZ         0.00000   0.00000   0.00000   0.00000
  10        8PX         0.00000   0.00000   0.00000   0.00000   0.00000
  11        8PY         0.00000   0.00000   0.00000   0.00000   0.00000
  12        8PZ         0.00000   0.00000   0.00000   0.00000   0.00000
  13        9PX         0.00000   0.00000   0.00000   0.00000   0.00000
  14        9PY         0.00000   0.00000   0.00000   0.00000   0.00000
  15        9PZ         0.00000   0.00000   0.00000   0.00000   0.00000
  16       10PX         0.00000   0.00000   0.00000   0.00000   0.00000
  17       10PY         0.00000   0.00000   0.00000   0.00000   0.00000
  18       10PZ         0.00000   0.00000   0.00000   0.00000   0.00000
  19       11PX         0.00000   0.00000   0.00000   0.00000   0.00000
  20       11PY         0.00000   0.00000   0.00000   0.00000   0.00000
  21       11PZ         0.00000   0.00000   0.00000   0.00000   0.00000
  22 2   H  1S         -0.00365  -0.00075   0.00000   0.00000   0.00025
  23        2S         -0.04785  -0.00811   0.00000   0.00000   0.00170
  24        3S         -0.02527  -0.00048   0.00000   0.00000   0.00010
  25        4PX         0.00101  -0.00193   0.00000   0.00000   0.00043
  26        4PY         0.00000   0.00000  -0.00020   0.00000   0.00000
  27        4PZ         0.00000   0.00000   0.00000  -0.00020   0.00000
                          11        12        13        14        15
  11        8PY         0.00000
  12        8PZ         0.00000   0.00000
  13        9PX         0.00000   0.00000   0.00000
  14        9PY         0.00000   0.00000   0.00000   0.00000
  15        9PZ         0.00000   0.00000   0.00000   0.00000   0.00000
  16       10PX         0.00000   0.00000   0.00000   0.00000   0.00000
  17       10PY         0.00000   0.00000   0.00000   0.00000   0.00000
  18       10PZ         0.00000   0.00000   0.00000   0.00000   0.00000
  19       11PX         0.00000   0.00000   0.00000   0.00000   0.00000
  20       11PY         0.00000   0.00000   0.00000   0.00000   0.00000
  21       11PZ         0.00000   0.00000   0.00000   0.00000   0.00000
  22 2   H  1S          0.00000   0.00000   0.00761   0.00000   0.00000
  23        2S          0.00000   0.00000   0.03678   0.00000   0.00000
  24        3S          0.00000   0.00000   0.00222   0.00000   0.00000
  25        4PX         0.00000   0.00000   0.00840   0.00000   0.00000
  26        4PY         0.00005   0.00000   0.00000   0.00118   0.00000
  27        4PZ         0.00000   0.00005   0.00000   0.00000   0.00118
                          16        17        18        19        20
  16       10PX         0.00000
  17       10PY         0.00000   0.00000
  18       10PZ         0.00000   0.00000   0.00000
  19       11PX         0.00000   0.00000   0.00000   0.00000
  20       11PY         0.00000   0.00000   0.00000   0.00000   0.00000
  21       11PZ         0.00000   0.00000   0.00000   0.00000   0.00000
  22 2   H  1S          0.04056   0.00000   0.00000   0.01718   0.00000
  23        2S          0.13468   0.00000   0.00000   0.06906   0.00000
  24        3S          0.00992   0.00000   0.00000   0.00833   0.00000
  25        4PX         0.01669   0.00000   0.00000   0.00044   0.00000
  26        4PY         0.00000   0.00661   0.00000   0.00000   0.00420
  27        4PZ         0.00000   0.00000   0.00661   0.00000   0.00000
                          21        22        23        24        25
  21       11PZ         0.00000
  22 2   H  1S          0.00000   0.00000
  23        2S          0.00000   0.00000   0.00000
  24        3S          0.00000   0.00000   0.00000   0.00000
  25        4PX         0.00000   0.00000   0.00000   0.00000   0.00000
  26        4PY         0.00000   0.00000   0.00000   0.00000   0.00000
  27        4PZ         0.00420   0.00000   0.00000   0.00000   0.00000
                          26        27
  26        4PY         0.00000
  27        4PZ         0.00000   0.00000
     Bonding Gross orbital populations:
                           1
   1 1   Cl 1S         -0.00001
   2        2S         -0.00006
   3        3S          0.00040
   4        4S          0.00053
   5        5S          0.00896
   6        6S         -0.07576
   7        7PX        -0.01128
   8        7PY        -0.00020
   9        7PZ        -0.00020
  10        8PX         0.00248
  11        8PY         0.00005
  12        8PZ         0.00005
  13        9PX         0.05501
  14        9PY         0.00118
  15        9PZ         0.00118
  16       10PX         0.20186
  17       10PY         0.00661
  18       10PZ         0.00661
  19       11PX         0.09502
  20       11PY         0.00420
  21       11PZ         0.00420
  22 2   H  1S          0.06547
  23        2S          0.19240
  24        3S         -0.01162
  25        4PX         0.03090
  26        4PY         0.01184
  27        4PZ         0.01184
          Bonding Condensed to atoms (all electrons):
               1          2
     1  Cl   0.000000   0.300842
     2  H    0.300842   0.000000
 Bonding Mulliken charges:
               1
     1  Cl  16.699158
     2  H    0.699158
 Sum of Bonding Mulliken charges =  17.39832
 Bonding Mulliken charges with hydrogens summed into heavy atoms:
               1
     1  Cl  17.398317
 GSVD:  LWork=        -945 too small for GESVD, short by        4050 words or        4050 for optimal perf.
 Atomic Valencies and Mayer Atomic Bond Orders:
               1          2
     1  Cl   1.017601   1.017601
     2  H    1.017601   1.017601
 Lowdin Atomic Charges:
               1
     1  Cl   0.048989
     2  H   -0.048989
 Sum of Lowdin charges  =   0.00000
 Lowdin atomic charges with hydrogens summed into heavy atoms:
               1
     1  Cl   0.000000
     2  H    0.000000
 Sum of Lowdin charges  =   0.00000
 Dipole moment from Lowdin charges (Debye):
    X=     0.3016    Y=     0.0000    Z=     0.0000  Tot=     0.3016
 Electronic spatial extent (au):  <R**2>=             34.7047
 Charge=              0.0000 electrons
 Dipole moment (field-independent basis, Debye):
    X=             -1.6434    Y=              0.0000    Z=             -0.0000  Tot=              1.6434
 Quadrupole moment (field-independent basis, Debye-Ang):
   XX=            -10.5968   YY=            -14.2740   ZZ=            -14.2740
   XY=             -0.0000   XZ=              0.0000   YZ=              0.0000
 Traceless Quadrupole moment (field-independent basis, Debye-Ang):
   XX=              2.4515   YY=             -1.2257   ZZ=             -1.2257
   XY=             -0.0000   XZ=              0.0000   YZ=              0.0000
 Octapole moment (field-independent basis, Debye-Ang**2):
  XXX=             -1.8599  YYY=              0.0000  ZZZ=             -0.0000  XYY=              0.0586
  XXY=              0.0000  XXZ=             -0.0000  XZZ=              0.0586  YZZ=              0.0000
  YYZ=             -0.0000  XYZ=              0.0000
 Hexadecapole moment (field-independent basis, Debye-Ang**3):
 XXXX=            -14.8323 YYYY=            -17.9561 ZZZZ=            -17.9561 XXXY=              0.0000
 XXXZ=              0.0000 YYYX=              0.0000 YYYZ=             -0.0000 ZZZX=              0.0000
 ZZZY=             -0.0000 XXYY=             -6.1727 XXZZ=             -6.1727 YYZZ=             -5.9854
 XXYZ=             -0.0000 YYXZ=              0.0000 ZZXY=              0.0000
 N-N= 7.017422298803D+00 E-N=-1.109482498349D+03  KE= 4.597500611513D+02
 Orbital energies and kinetic energies (alpha):
                                 1                 2
   1         O              -101.567393        137.005401
   2         O                -9.483012         21.495298
   3         O                -7.247482         20.531804
   4         O                -7.237280         20.550482
   5         O                -7.237280         20.550482
   6         O                -0.861908          2.996365
   7         O                -0.478510          2.101207
   8         O                -0.341212          2.321996
   9         O                -0.341212          2.321996
  10         V                -0.008196          1.219582
  11         V                 0.195020          0.685354
  12         V                 0.275853          1.418802
  13         V                 0.275853          1.418802
  14         V                 0.293687          1.773561
  15         V                 0.726773          3.560040
  16         V                 1.209802          2.005773
  17         V                 1.209802          2.005773
  18         V                 1.526022          2.747163
  19         V                 2.000272          6.410903
  20         V                 2.094412          8.392113
  21         V                 2.094412          8.392113
  22         V                 2.302772          6.031025
  23         V                 9.495834         37.104976
  24         V                25.354611         43.034219
  25         V                25.354611         43.034219
  26         V                25.539180         43.490366
  27         V               215.449840        552.791327
 Total kinetic energy from orbitals= 4.597500611513D+02
 Calling FoFJK, ICntrl=      2127 FMM=F ISym2X=0 I1Cent= 0 IOpClX= 0 NMat=1 NMatS=1 NMatT=0.
 -------------------------------------------------------------------
 Center     Atomic                   Forces (Hartrees/Bohr)
 Number     Number              X              Y              Z
 -------------------------------------------------------------------
      1       17           0.005884728    0.000000000    0.000000000
      2        1          -0.005884728   -0.000000000   -0.000000000
 -------------------------------------------------------------------
 Cartesian Forces:  Max     0.005884728 RMS     0.003397549

 GradGradGradGradGradGradGradGradGradGradGradGradGradGradGradGradGradGrad
 Berny optimization.
 FormGI is forming the generalized inverse of G from B-inverse, IUseBI=4.
 Internal  Forces:  Max     0.005884728 RMS     0.005884728
 Search for a local minimum.
 Step number   1 out of a maximum of  100
 All quantities printed in internal units (Hartrees-Bohrs-Radians)
 Mixed Optimization -- RFO/linear search
 Second derivative matrix not updated -- first step.
 The second derivative matrix:
                          R1
           R1           0.31669
 ITU=  0
     Eigenvalues ---    0.31669
 RFO step:  Lambda=-1.09313100D-04 EMin= 3.16687335D-01
 Linear search not attempted -- first point.
 Iteration  1 RMS(Cart)=  0.01313502 RMS(Int)=  0.00000000
 Iteration  2 RMS(Cart)=  0.00000000 RMS(Int)=  0.00000000
 Variable       Old X    -DE/DX   Delta X   Delta X   Delta X     New X
                                 (Linear)    (Quad)   (Total)
    R1        2.42254   0.00588   0.00000   0.01858   0.01858   2.44112
         Item               Value     Threshold  Converged?
 Maximum Force            0.005885     0.000015     NO 
 RMS     Force            0.005885     0.000010     NO 
 Maximum Displacement     0.009288     0.000060     NO 
 RMS     Displacement     0.013135     0.000040     NO 
 Predicted change in Energy=-5.467541D-05
 GradGradGradGradGradGradGradGradGradGradGradGradGradGradGradGradGradGrad

                          Input orientation:                          
 ---------------------------------------------------------------------
 Center     Atomic      Atomic             Coordinates (Angstroms)
 Number     Number       Type             X           Y           Z
 ---------------------------------------------------------------------
      1         17           0        0.045892    0.000000    0.000000
      2          1           0       -1.245892    0.000000    0.000000
 ---------------------------------------------------------------------
 Symmetry turned off by external request.
 Stoichiometry    ClH
 Framework group  C*V[C*(HCl)]
 Deg. of freedom     1
 Full point group                 C*V     NOp   4
 Rotational constants (GHZ):           0.0000000         309.1662132         309.1662132
 Standard basis: 6-311G(3d2f,3p2d) (5D, 7F)
    27 basis functions,    51 primitive gaussians,    27 cartesian basis functions
     9 alpha electrons        9 beta electrons
       nuclear repulsion energy         6.9640231038 Hartrees.
 NAtoms=    2 NActive=    2 NUniq=    2 SFac= 1.00D+00 NAtFMM=   60 NAOKFM=F Big=F
 Integral buffers will be    131072 words long.
 Raffenetti 2 integral format.
 Two-electron integral symmetry is turned off.
 One-electron integrals computed using PRISM.
 NBasis=    27 RedAO= T EigKep=  3.15D-02  NBF=    27
 NBsUse=    27 1.00D-06 EigRej= -1.00D+00 NBFU=    27
 Initial guess from the checkpoint file:  "HCl_B3LYP_6-311g.chk"
 B after Tr=     0.008256    0.000000    0.000000
         Rot=    1.000000    0.000000    0.000000    0.000000 Ang=   0.00 deg.
 Keep R1 ints in memory in canonical form, NReq=20705102.
 Requested convergence on RMS density matrix=1.00D-08 within 128 cycles.
 Requested convergence on MAX density matrix=1.00D-06.
 Requested convergence on             energy=1.00D-06.
 No special actions if energy rises.
 SCF Done:  E(RB3LYP) =  -460.825528030     A.U. after    7 cycles
            NFock=  7  Conv=0.10D-08     -V/T= 2.0024
 Calling FoFJK, ICntrl=      2127 FMM=F ISym2X=0 I1Cent= 0 IOpClX= 0 NMat=1 NMatS=1 NMatT=0.
 -------------------------------------------------------------------
 Center     Atomic                   Forces (Hartrees/Bohr)
 Number     Number              X              Y              Z
 -------------------------------------------------------------------
      1       17           0.000059488   -0.000000000   -0.000000000
      2        1          -0.000059488    0.000000000    0.000000000
 -------------------------------------------------------------------
 Cartesian Forces:  Max     0.000059488 RMS     0.000034345

 GradGradGradGradGradGradGradGradGradGradGradGradGradGradGradGradGradGrad
 Berny optimization.
 Using GEDIIS/GDIIS optimizer.
 Internal  Forces:  Max     0.000059488 RMS     0.000059488
 Search for a local minimum.
 Step number   2 out of a maximum of  100
 All quantities printed in internal units (Hartrees-Bohrs-Radians)
 Mixed Optimization -- En-DIIS/RFO-DIIS
 Update second derivatives using D2CorX and points    1    2
 DE= -5.47D-05 DEPred=-5.47D-05 R= 1.00D+00
 TightC=F SS=  1.41D+00  RLast= 1.86D-02 DXNew= 5.0454D-01 5.5727D-02
 Trust test= 1.00D+00 RLast= 1.86D-02 DXMaxT set to 3.00D-01
 The second derivative matrix:
                          R1
           R1           0.31359
 ITU=  1  0
 Use linear search instead of GDIIS.
     Eigenvalues ---    0.31359
 RFO step:  Lambda= 0.00000000D+00 EMin= 3.13594185D-01
 Quartic linear search produced a step of  0.01050.
 Iteration  1 RMS(Cart)=  0.00013798 RMS(Int)=  0.00000000
 Iteration  2 RMS(Cart)=  0.00000000 RMS(Int)=  0.00000000
 Variable       Old X    -DE/DX   Delta X   Delta X   Delta X     New X
                                 (Linear)    (Quad)   (Total)
    R1        2.44112   0.00006   0.00020   0.00000   0.00020   2.44131
         Item               Value     Threshold  Converged?
 Maximum Force            0.000059     0.000015     NO 
 RMS     Force            0.000059     0.000010     NO 
 Maximum Displacement     0.000098     0.000060     NO 
 RMS     Displacement     0.000138     0.000040     NO 
 Predicted change in Energy=-5.637740D-09
 GradGradGradGradGradGradGradGradGradGradGradGradGradGradGradGradGradGrad

                          Input orientation:                          
 ---------------------------------------------------------------------
 Center     Atomic      Atomic             Coordinates (Angstroms)
 Number     Number       Type             X           Y           Z
 ---------------------------------------------------------------------
      1         17           0        0.045944    0.000000    0.000000
      2          1           0       -1.245944    0.000000    0.000000
 ---------------------------------------------------------------------
 Symmetry turned off by external request.
 Stoichiometry    ClH
 Framework group  C*V[C*(HCl)]
 Deg. of freedom     1
 Full point group                 C*V     NOp   4
 Rotational constants (GHZ):           0.0000000         309.1167915         309.1167915
 Standard basis: 6-311G(3d2f,3p2d) (5D, 7F)
    27 basis functions,    51 primitive gaussians,    27 cartesian basis functions
     9 alpha electrons        9 beta electrons
       nuclear repulsion energy         6.9634664656 Hartrees.
 NAtoms=    2 NActive=    2 NUniq=    2 SFac= 1.00D+00 NAtFMM=   60 NAOKFM=F Big=F
 Integral buffers will be    131072 words long.
 Raffenetti 2 integral format.
 Two-electron integral symmetry is turned off.
 One-electron integrals computed using PRISM.
 NBasis=    27 RedAO= T EigKep=  3.15D-02  NBF=    27
 NBsUse=    27 1.00D-06 EigRej= -1.00D+00 NBFU=    27
 Initial guess from the checkpoint file:  "HCl_B3LYP_6-311g.chk"
 B after Tr=     0.000087    0.000000    0.000000
         Rot=    1.000000    0.000000    0.000000    0.000000 Ang=   0.00 deg.
 Keep R1 ints in memory in canonical form, NReq=20705102.
 Requested convergence on RMS density matrix=1.00D-08 within 128 cycles.
 Requested convergence on MAX density matrix=1.00D-06.
 Requested convergence on             energy=1.00D-06.
 No special actions if energy rises.
 SCF Done:  E(RB3LYP) =  -460.825528036     A.U. after    5 cycles
            NFock=  5  Conv=0.27D-08     -V/T= 2.0024
 Calling FoFJK, ICntrl=      2127 FMM=F ISym2X=0 I1Cent= 0 IOpClX= 0 NMat=1 NMatS=1 NMatT=0.
 -------------------------------------------------------------------
 Center     Atomic                   Forces (Hartrees/Bohr)
 Number     Number              X              Y              Z
 -------------------------------------------------------------------
      1       17          -0.000000015    0.000000000    0.000000000
      2        1           0.000000015   -0.000000000   -0.000000000
 -------------------------------------------------------------------
 Cartesian Forces:  Max     0.000000015 RMS     0.000000009

 GradGradGradGradGradGradGradGradGradGradGradGradGradGradGradGradGradGrad
 Berny optimization.
 Using GEDIIS/GDIIS optimizer.
 Internal  Forces:  Max     0.000000015 RMS     0.000000015
 Search for a local minimum.
 Step number   3 out of a maximum of  100
 All quantities printed in internal units (Hartrees-Bohrs-Radians)
 Mixed Optimization -- En-DIIS/RFO-DIIS
 Swapping is turned off.
 Update second derivatives using D2CorX and points    2    3
 DE= -5.80D-09 DEPred=-5.64D-09 R= 1.03D+00
 Trust test= 1.03D+00 RLast= 1.95D-04 DXMaxT set to 3.00D-01
 The second derivative matrix:
                          R1
           R1           0.30493
 ITU=  0  1
     Eigenvalues ---    0.30493
 En-DIIS/RFO-DIIS/Sim-DIIS IScMMF=       -3 using points:     3    2
 RFO step:  Lambda=-7.21644966D-16.
 DIIS inversion failure, remove point   2.
 Use linear search instead of GDIIS.
 RFO step:  Lambda= 0.00000000D+00 EMin= 3.04931615D-01
 Quartic linear search produced a step of -0.00025.
 Iteration  1 RMS(Cart)=  0.00000003 RMS(Int)=  0.00000000
 Variable       Old X    -DE/DX   Delta X   Delta X   Delta X     New X
                                 (Linear)    (Quad)   (Total)
    R1        2.44131  -0.00000  -0.00000   0.00000  -0.00000   2.44131
         Item               Value     Threshold  Converged?
 Maximum Force            0.000000     0.000015     YES
 RMS     Force            0.000000     0.000010     YES
 Maximum Displacement     0.000000     0.000060     YES
 RMS     Displacement     0.000000     0.000040     YES
 Predicted change in Energy=-3.632470D-16
 Optimization completed.
    -- Stationary point found.
                           ----------------------------
                           !   Optimized Parameters   !
                           ! (Angstroms and Degrees)  !
 --------------------------                            --------------------------
 ! Name  Definition              Value          Derivative Info.                !
 --------------------------------------------------------------------------------
 ! R1    R(1,2)                  1.2919         -DE/DX =    0.0                 !
 --------------------------------------------------------------------------------
 GradGradGradGradGradGradGradGradGradGradGradGradGradGradGradGradGradGrad

                          Input orientation:                          
 ---------------------------------------------------------------------
 Center     Atomic      Atomic             Coordinates (Angstroms)
 Number     Number       Type             X           Y           Z
 ---------------------------------------------------------------------
      1         17           0        0.045944    0.000000    0.000000
      2          1           0       -1.245944    0.000000    0.000000
 ---------------------------------------------------------------------
 Symmetry turned off by external request.
 Stoichiometry    ClH
 Framework group  C*V[C*(HCl)]
 Deg. of freedom     1
 Full point group                 C*V     NOp   4
 Rotational constants (GHZ):           0.0000000         309.1167915         309.1167915

 **********************************************************************

            Population analysis using the SCF density.

 **********************************************************************

 Alpha  occ. eigenvalues -- -101.56785  -9.48320  -7.24774  -7.23748  -7.23748
 Alpha  occ. eigenvalues --   -0.86022  -0.47735  -0.34096  -0.34096
 Alpha virt. eigenvalues --   -0.01093   0.19552   0.27592   0.27592   0.29294
 Alpha virt. eigenvalues --    0.72510   1.21131   1.21131   1.52484   2.00098
 Alpha virt. eigenvalues --    2.09451   2.09451   2.30113   9.49070  25.35452
 Alpha virt. eigenvalues --   25.35452  25.53710 215.44309
     Molecular Orbital Coefficients:
                           1         2         3         4         5
                           O         O         O         O         O
     Eigenvalues --  -101.56785  -9.48320  -7.24774  -7.23748  -7.23748
   1 1   Cl 1S          0.41161  -0.12179  -0.00141  -0.00000  -0.00000
   2        2S          0.65408  -0.32688  -0.00384  -0.00000   0.00000
   3        3S          0.01496   0.49701   0.00638  -0.00000  -0.00000
   4        4S         -0.00388   0.61186   0.00659   0.00000   0.00000
   5        5S          0.00129   0.05486  -0.00005  -0.00000  -0.00000
   6        6S         -0.00064  -0.01586   0.00026   0.00000   0.00000
   7        7PX        -0.00013  -0.00885   0.80442   0.00000  -0.00000
   8        7PY        -0.00000  -0.00000   0.00000  -0.14306   0.79206
   9        7PZ         0.00000   0.00000  -0.00000   0.79206   0.14306
  10        8PX        -0.00002   0.00293  -0.27254  -0.00000   0.00000
  11        8PY        -0.00000   0.00000  -0.00000   0.04848  -0.26843
  12        8PZ         0.00000  -0.00000   0.00000  -0.26843  -0.04848
  13        9PX         0.00015  -0.00084   0.05348   0.00000  -0.00000
  14        9PY         0.00000  -0.00000   0.00000  -0.00928   0.05139
  15        9PZ         0.00000   0.00000  -0.00000   0.05139   0.00928
  16       10PX        -0.00018  -0.00176  -0.00145   0.00000   0.00000
  17       10PY        -0.00000   0.00000  -0.00000   0.00014  -0.00079
  18       10PZ        -0.00000  -0.00000   0.00000  -0.00079  -0.00014
  19       11PX         0.00018   0.00330   0.00005  -0.00000  -0.00000
  20       11PY         0.00000   0.00000  -0.00000  -0.00000   0.00001
  21       11PZ         0.00000   0.00000  -0.00000   0.00001   0.00000
  22 2   H  1S          0.00002   0.00017  -0.00002  -0.00000  -0.00000
  23        2S         -0.00009  -0.00123  -0.00061   0.00000   0.00000
  24        3S          0.00025   0.00524   0.00009  -0.00000  -0.00000
  25        4PX        -0.00008  -0.00119  -0.00037   0.00000   0.00000
  26        4PY        -0.00000  -0.00000  -0.00000  -0.00001   0.00006
  27        4PZ        -0.00000   0.00000   0.00000   0.00006   0.00001
                           6         7         8         9        10
                           O         O         O         O         V
     Eigenvalues --    -0.86022  -0.47735  -0.34096  -0.34096  -0.01093
   1 1   Cl 1S          0.03624   0.01313  -0.00000   0.00000  -0.01174
   2        2S          0.10370   0.03776  -0.00000   0.00000  -0.03430
   3        3S         -0.20987  -0.07821   0.00000   0.00000   0.07557
   4        4S         -0.39096  -0.14291  -0.00000  -0.00000   0.12026
   5        5S          0.61329   0.21154   0.00000   0.00000  -0.14587
   6        6S          0.46841   0.33623  -0.00000  -0.00000  -0.87269
   7        7PX         0.04371  -0.18661   0.00000   0.00000  -0.11781
   8        7PY        -0.00000   0.00000  -0.22541   0.03730   0.00000
   9        7PZ         0.00000  -0.00000  -0.03730  -0.22541   0.00000
  10        8PX        -0.01551   0.06873   0.00000   0.00000   0.04554
  11        8PY         0.00000   0.00000   0.08512  -0.01409  -0.00000
  12        8PZ         0.00000  -0.00000   0.01409   0.08512   0.00000
  13        9PX        -0.05422   0.22136  -0.00000  -0.00000   0.13618
  14        9PY         0.00000   0.00000   0.25960  -0.04296   0.00000
  15        9PZ        -0.00000   0.00000   0.04296   0.25960  -0.00000
  16       10PX        -0.06239   0.37905   0.00000  -0.00000   0.37549
  17       10PY        -0.00000  -0.00000   0.56549  -0.09358  -0.00000
  18       10PZ         0.00000   0.00000   0.09358   0.56549   0.00000
  19       11PX        -0.01707   0.16216   0.00000   0.00000   0.70610
  20       11PY         0.00000   0.00000   0.34176  -0.05656   0.00000
  21       11PZ        -0.00000  -0.00000   0.05656   0.34176  -0.00000
  22 2   H  1S          0.09436  -0.15694  -0.00000   0.00000   0.11781
  23        2S          0.13931  -0.34085   0.00000  -0.00000   0.29183
  24        3S         -0.00800  -0.04776   0.00000   0.00000   1.40004
  25        4PX         0.04041  -0.04964   0.00000  -0.00000   0.00061
  26        4PY         0.00000  -0.00000   0.02845  -0.00471  -0.00000
  27        4PZ        -0.00000   0.00000   0.00471   0.02845  -0.00000
                          11        12        13        14        15
                           V         V         V         V         V
     Eigenvalues --     0.19552   0.27592   0.27592   0.29294   0.72510
   1 1   Cl 1S         -0.00181  -0.00000  -0.00000  -0.00671  -0.03400
   2        2S         -0.00538  -0.00000  -0.00000  -0.01909  -0.09285
   3        3S          0.01289   0.00000   0.00000   0.03765   0.14913
   4        4S          0.01394   0.00000   0.00000   0.09022   0.62534
   5        5S          0.06660  -0.00000  -0.00000  -0.24195  -2.31376
   6        6S         -0.22098  -0.00000  -0.00000  -0.18543   2.75428
   7        7PX        -0.01000   0.00000   0.00000   0.15189  -0.05623
   8        7PY         0.00000   0.14230  -0.01606   0.00000  -0.00000
   9        7PZ        -0.00000   0.01606   0.14230  -0.00000   0.00000
  10        8PX         0.00454  -0.00000  -0.00000  -0.07023   0.01489
  11        8PY        -0.00000  -0.06572   0.00742   0.00000  -0.00000
  12        8PZ         0.00000  -0.00742  -0.06572   0.00000  -0.00000
  13        9PX        -0.00932  -0.00000  -0.00000  -0.09573   0.16606
  14        9PY        -0.00000  -0.10034   0.01133  -0.00000   0.00000
  15        9PZ        -0.00000  -0.01133  -0.10034   0.00000  -0.00000
  16       10PX         0.10989  -0.00000  -0.00000  -1.04521  -0.11015
  17       10PY         0.00000  -0.92302   0.10420  -0.00000   0.00000
  18       10PZ         0.00000  -0.10420  -0.92302   0.00000  -0.00000
  19       11PX         0.74779   0.00000   0.00000   1.38612  -0.77670
  20       11PY        -0.00000   1.22660  -0.13847   0.00000  -0.00000
  21       11PZ        -0.00000   0.13847   1.22660  -0.00000   0.00000
  22 2   H  1S          0.12352   0.00000  -0.00000  -0.08229   0.09281
  23        2S          1.38459   0.00000  -0.00000  -0.61817  -0.14527
  24        3S         -0.95452   0.00000   0.00000   1.19316  -1.28877
  25        4PX         0.10493   0.00000   0.00000  -0.02609  -0.21558
  26        4PY        -0.00000   0.00005  -0.00001  -0.00000   0.00000
  27        4PZ        -0.00000   0.00001   0.00005   0.00000  -0.00000
                          16        17        18        19        20
                           V         V         V         V         V
     Eigenvalues --     1.21131   1.21131   1.52484   2.00098   2.09451
   1 1   Cl 1S         -0.00000   0.00000  -0.01233  -0.00551  -0.00000
   2        2S         -0.00000   0.00000  -0.03470  -0.01506  -0.00000
   3        3S         -0.00000  -0.00000   0.06558   0.02413   0.00000
   4        4S          0.00000  -0.00000   0.20680   0.11652   0.00000
   5        5S         -0.00000   0.00000  -0.51241  -0.42369  -0.00000
   6        6S         -0.00000  -0.00000  -0.20007   0.31212   0.00000
   7        7PX         0.00000  -0.00000   0.03254   0.38462   0.00000
   8        7PY        -0.00537   0.04300  -0.00000  -0.00000   0.10088
   9        7PZ         0.04300   0.00537   0.00000   0.00000  -0.49750
  10        8PX        -0.00000  -0.00000   0.00677  -0.09498  -0.00000
  11        8PY         0.00184  -0.01472   0.00000   0.00000  -0.02475
  12        8PZ        -0.01472  -0.00184  -0.00000  -0.00000   0.12205
  13        9PX        -0.00000   0.00000  -0.33194  -1.46040  -0.00000
  14        9PY         0.01163  -0.09308   0.00000   0.00000  -0.37848
  15        9PZ        -0.09308  -0.01163  -0.00000  -0.00000   1.86648
  16       10PX         0.00000  -0.00000   1.16495   1.71521   0.00000
  17       10PY         0.00383  -0.03068  -0.00000  -0.00000   0.36755
  18       10PZ        -0.03068  -0.00383   0.00000   0.00000  -1.81256
  19       11PX        -0.00000   0.00000  -0.33370  -0.55260  -0.00000
  20       11PY         0.02237  -0.17896   0.00000   0.00000  -0.11719
  21       11PZ        -0.17896  -0.02237  -0.00000  -0.00000   0.57791
  22 2   H  1S         -0.00000  -0.00000   0.19313  -0.96865  -0.00000
  23        2S          0.00000   0.00000   0.12259   1.63566   0.00000
  24        3S         -0.00000   0.00000   0.22101  -0.90594  -0.00000
  25        4PX         0.00000  -0.00000   1.25641   0.14211   0.00000
  26        4PY        -0.12657   1.01266   0.00000  -0.00000  -0.02401
  27        4PZ         1.01266   0.12657  -0.00000  -0.00000   0.11839
                          21        22        23        24        25
                           V         V         V         V         V
     Eigenvalues --     2.09451   2.30113   9.49070  25.35452  25.35452
   1 1   Cl 1S         -0.00000  -0.00184   0.11851  -0.00000  -0.00000
   2        2S         -0.00000  -0.00452   0.48053  -0.00000  -0.00000
   3        3S          0.00000   0.00257  -2.64534   0.00000   0.00000
   4        4S          0.00000   0.05940   3.09070  -0.00000  -0.00000
   5        5S         -0.00000  -0.16225  -1.69168   0.00000   0.00000
   6        6S          0.00000  -0.15202   0.85429  -0.00000  -0.00000
   7        7PX         0.00000  -0.33398  -0.00289  -0.00000  -0.00000
   8        7PY        -0.49750  -0.00000   0.00000   1.00804  -1.94208
   9        7PZ        -0.10088  -0.00000  -0.00000  -1.94208  -1.00804
  10        8PX        -0.00000   0.08214  -0.00938  -0.00000  -0.00000
  11        8PY         0.12205   0.00000   0.00000   0.80754  -1.55578
  12        8PZ         0.02475   0.00000  -0.00000  -1.55578  -0.80754
  13        9PX        -0.00000   1.26628  -0.04761   0.00000   0.00000
  14        9PY         1.86648   0.00000  -0.00000  -1.06739   2.05642
  15        9PZ         0.37848   0.00000   0.00000   2.05642   1.06739
  16       10PX         0.00000  -0.97578   0.17698  -0.00000  -0.00000
  17       10PY        -1.81256  -0.00000   0.00000   0.49833  -0.96008
  18       10PZ        -0.36755  -0.00000  -0.00000  -0.96008  -0.49833
  19       11PX        -0.00000   0.51190  -0.21555   0.00000   0.00000
  20       11PY         0.57791   0.00000  -0.00000  -0.13056   0.25153
  21       11PZ         0.11719   0.00000   0.00000   0.25153   0.13056
  22 2   H  1S         -0.00000  -1.22633  -0.03123  -0.00000  -0.00000
  23        2S          0.00000   1.45981   0.12939  -0.00000  -0.00000
  24        3S         -0.00000  -0.33411  -0.32977   0.00000   0.00000
  25        4PX         0.00000   0.25890   0.11805   0.00000   0.00000
  26        4PY         0.11839  -0.00000  -0.00000  -0.01282   0.02470
  27        4PZ         0.02401   0.00000   0.00000   0.02470   0.01282
                          26        27
                           V         V
     Eigenvalues --    25.53710 215.44309
   1 1   Cl 1S         -0.00129  -1.54172
   2        2S         -0.00381   1.91518
   3        3S          0.02806  -1.43909
   4        4S         -0.04452   0.96269
   5        5S          0.06018  -0.38125
   6        6S         -0.09909   0.18902
   7        7PX        -2.20469   0.00516
   8        7PY        -0.00000   0.00000
   9        7PZ         0.00000   0.00000
  10        8PX        -1.75962   0.00285
  11        8PY        -0.00000   0.00000
  12        8PZ         0.00000   0.00000
  13        9PX         2.36481  -0.01567
  14        9PY         0.00000  -0.00000
  15        9PZ        -0.00000   0.00000
  16       10PX        -1.15068   0.03905
  17       10PY        -0.00000   0.00000
  18       10PZ         0.00000  -0.00000
  19       11PX         0.35187  -0.04833
  20       11PY         0.00000  -0.00000
  21       11PZ        -0.00000   0.00000
  22 2   H  1S         -0.05394  -0.00630
  23        2S         -0.08022   0.02652
  24        3S          0.16690  -0.07359
  25        4PX         0.01603   0.02352
  26        4PY         0.00000  -0.00000
  27        4PZ        -0.00000   0.00000
     Density Matrix:
                           1         2         3         4         5
   1 1   Cl 1S          0.37149
   2        2S          0.62659   1.09374
   3        3S         -0.12603  -0.35484   0.59489
   4        4S         -0.18435  -0.49702   0.79462   1.09542
   5        5S          0.03770   0.10899  -0.23593  -0.47288   0.84777
   6        6S          0.04611   0.13207  -0.26498  -0.48176   0.71506
   7        7PX        -0.00195  -0.00559   0.01231   0.01893  -0.02640
   8        7PY        -0.00000  -0.00000   0.00000  -0.00000  -0.00000
   9        7PZ         0.00000   0.00000  -0.00000   0.00000  -0.00000
  10        8PX         0.00071   0.00212  -0.00480  -0.00752   0.01041
  11        8PY        -0.00000  -0.00000  -0.00000   0.00000   0.00000
  12        8PZ         0.00000   0.00000   0.00000  -0.00000   0.00000
  13        9PX         0.00206   0.00580  -0.01202  -0.02120   0.02705
  14        9PY         0.00000   0.00000  -0.00000  -0.00000   0.00000
  15        9PZ         0.00000   0.00000   0.00000   0.00000  -0.00000
  16       10PX         0.00571   0.01661  -0.03488  -0.06173   0.08366
  17       10PY        -0.00000  -0.00000   0.00000   0.00000  -0.00000
  18       10PZ        -0.00000   0.00000  -0.00000  -0.00000   0.00000
  19       11PX         0.00236   0.00678  -0.01491  -0.02896   0.04803
  20       11PY         0.00000   0.00000  -0.00000  -0.00000   0.00000
  21       11PZ        -0.00000  -0.00000   0.00000   0.00000   0.00000
  22 2   H  1S          0.00269   0.00763  -0.01489  -0.02872   0.04937
  23        2S          0.00138   0.00384  -0.00639  -0.01302   0.02653
  24        3S         -0.00290  -0.00836   0.01604   0.02631  -0.02944
  25        4PX         0.00185   0.00531  -0.01039  -0.01887   0.02844
  26        4PY        -0.00000  -0.00000   0.00000   0.00000  -0.00000
  27        4PZ        -0.00000  -0.00000   0.00000   0.00000   0.00000
                           6         7         8         9        10
   6        6S          0.66542
   7        7PX        -0.08384   1.36780
   8        7PY         0.00000   0.00000   1.40004
   9        7PZ         0.00000  -0.00000  -0.00000   1.40004
  10        8PX         0.03145  -0.46553   0.00000  -0.00000   0.15850
  11        8PY        -0.00000  -0.00000  -0.47853   0.00000  -0.00000
  12        8PZ        -0.00000   0.00000   0.00000  -0.47853   0.00000
  13        9PX         0.09811  -0.00131  -0.00000   0.00000   0.00296
  14        9PY         0.00000   0.00000  -0.03617   0.00000  -0.00000
  15        9PZ        -0.00000  -0.00000  -0.00000  -0.03617   0.00000
  16       10PX         0.19651  -0.14923   0.00000   0.00000   0.05482
  17       10PY        -0.00000  -0.00000  -0.26321  -0.00000   0.00000
  18       10PZ        -0.00000   0.00000   0.00000  -0.26321  -0.00000
  19       11PX         0.09294  -0.06199  -0.00000  -0.00000   0.02281
  20       11PY        -0.00000  -0.00000  -0.15827   0.00000   0.00000
  21       11PZ        -0.00000  -0.00000   0.00000  -0.15827   0.00000
  22 2   H  1S         -0.01714   0.06679  -0.00000  -0.00000  -0.02449
  23        2S         -0.09866   0.13844   0.00000   0.00000  -0.05085
  24        3S         -0.03978   0.01718  -0.00000  -0.00000  -0.00634
  25        4PX         0.00452   0.02149  -0.00000   0.00000  -0.00788
  26        4PY        -0.00000   0.00000  -0.01309  -0.00000  -0.00000
  27        4PZ        -0.00000   0.00000  -0.00000  -0.01309  -0.00000
                          11        12        13        14        15
  11        8PY         0.16370
  12        8PZ        -0.00000   0.16370
  13        9PX         0.00000  -0.00000   0.10960
  14        9PY         0.01692  -0.00000  -0.00000   0.14393
  15        9PZ         0.00000   0.01692   0.00000   0.00000   0.14393
  16       10PX        -0.00000  -0.00000   0.17443   0.00000   0.00000
  17       10PY         0.09935   0.00000  -0.00000   0.30156   0.00000
  18       10PZ        -0.00000   0.09935  -0.00000  -0.00000   0.30156
  19       11PX         0.00000   0.00000   0.07364  -0.00000   0.00000
  20       11PY         0.05977  -0.00000  -0.00000   0.18230  -0.00000
  21       11PZ        -0.00000   0.05977  -0.00000  -0.00000   0.18230
  22 2   H  1S         -0.00000   0.00000  -0.07971  -0.00000  -0.00000
  23        2S         -0.00000  -0.00000  -0.16607   0.00000  -0.00000
  24        3S          0.00000   0.00000  -0.02028  -0.00000   0.00000
  25        4PX         0.00000  -0.00000  -0.02640   0.00000  -0.00000
  26        4PY         0.00495   0.00000  -0.00000   0.01518   0.00000
  27        4PZ         0.00000   0.00495   0.00000   0.00000   0.01518
                          16        17        18        19        20
  16       10PX         0.29516
  17       10PY         0.00000   0.65707
  18       10PZ        -0.00000   0.00000   0.65707
  19       11PX         0.12505   0.00000   0.00000   0.05320
  20       11PY         0.00000   0.39711  -0.00000   0.00000   0.24000
  21       11PZ        -0.00000  -0.00000   0.39711   0.00000  -0.00000
  22 2   H  1S         -0.13075  -0.00000   0.00000  -0.05412  -0.00000
  23        2S         -0.27578   0.00000  -0.00000  -0.11531   0.00000
  24        3S         -0.03523  -0.00000   0.00000  -0.01518  -0.00000
  25        4PX        -0.04267   0.00000   0.00000  -0.01749   0.00000
  26        4PY        -0.00000   0.03306   0.00000  -0.00000   0.01998
  27        4PZ         0.00000   0.00000   0.03306   0.00000   0.00000
                          21        22        23        24        25
  21       11PZ         0.24000
  22 2   H  1S          0.00000   0.06707
  23        2S         -0.00000   0.13328   0.27118
  24        3S          0.00000   0.01348   0.03032   0.00474
  25        4PX        -0.00000   0.02321   0.04510   0.00408   0.00820
  26        4PY         0.00000   0.00000   0.00000   0.00000   0.00000
  27        4PZ         0.01998  -0.00000  -0.00000   0.00000  -0.00000
                          26        27
  26        4PY         0.00166
  27        4PZ         0.00000   0.00166
    Full Mulliken population analysis:
                           1         2         3         4         5
   1 1   Cl 1S          0.37149
   2        2S          0.45399   1.09374
   3        3S         -0.02881  -0.20993   0.59489
   4        4S         -0.02160  -0.16995   0.67659   1.09542
   5        5S          0.00144   0.01302  -0.09297  -0.31762   0.84777
   6        6S          0.00076   0.00695  -0.04902  -0.16981   0.57240
   7        7PX         0.00000   0.00000   0.00000   0.00000   0.00000
   8        7PY         0.00000   0.00000   0.00000   0.00000   0.00000
   9        7PZ         0.00000   0.00000   0.00000   0.00000   0.00000
  10        8PX         0.00000   0.00000   0.00000   0.00000   0.00000
  11        8PY         0.00000   0.00000   0.00000   0.00000   0.00000
  12        8PZ         0.00000   0.00000   0.00000   0.00000   0.00000
  13        9PX         0.00000   0.00000   0.00000   0.00000   0.00000
  14        9PY         0.00000   0.00000   0.00000   0.00000   0.00000
  15        9PZ         0.00000   0.00000   0.00000   0.00000   0.00000
  16       10PX         0.00000   0.00000   0.00000   0.00000   0.00000
  17       10PY         0.00000   0.00000   0.00000   0.00000   0.00000
  18       10PZ         0.00000   0.00000   0.00000   0.00000   0.00000
  19       11PX         0.00000   0.00000   0.00000   0.00000   0.00000
  20       11PY         0.00000   0.00000   0.00000   0.00000   0.00000
  21       11PZ         0.00000   0.00000   0.00000   0.00000   0.00000
  22 2   H  1S          0.00000   0.00000  -0.00002  -0.00019   0.00425
  23        2S          0.00001   0.00005  -0.00028  -0.00117   0.00736
  24        3S         -0.00002  -0.00016   0.00107   0.00349  -0.01081
  25        4PX         0.00000   0.00004  -0.00034  -0.00149   0.00749
  26        4PY         0.00000   0.00000   0.00000   0.00000   0.00000
  27        4PZ         0.00000   0.00000   0.00000   0.00000   0.00000
                           6         7         8         9        10
   6        6S          0.66542
   7        7PX         0.00000   1.36780
   8        7PY         0.00000   0.00000   1.40004
   9        7PZ         0.00000   0.00000   0.00000   1.40004
  10        8PX         0.00000   0.24188   0.00000   0.00000   0.15850
  11        8PY         0.00000   0.00000   0.24863   0.00000   0.00000
  12        8PZ         0.00000   0.00000   0.00000   0.24863   0.00000
  13        9PX         0.00000  -0.00080   0.00000   0.00000   0.00043
  14        9PY         0.00000   0.00000  -0.02211   0.00000   0.00000
  15        9PZ         0.00000   0.00000   0.00000  -0.02211   0.00000
  16       10PX         0.00000  -0.04097   0.00000   0.00000   0.00696
  17       10PY         0.00000   0.00000  -0.07227   0.00000   0.00000
  18       10PZ         0.00000   0.00000   0.00000  -0.07227   0.00000
  19       11PX         0.00000  -0.00443   0.00000   0.00000   0.00092
  20       11PY         0.00000   0.00000  -0.01131   0.00000   0.00000
  21       11PZ         0.00000   0.00000   0.00000  -0.01131   0.00000
  22 2   H  1S         -0.00350  -0.00070   0.00000   0.00000   0.00023
  23        2S         -0.04612  -0.00791   0.00000   0.00000   0.00166
  24        3S         -0.02525  -0.00049   0.00000   0.00000   0.00010
  25        4PX         0.00110  -0.00183   0.00000   0.00000   0.00041
  26        4PY         0.00000   0.00000  -0.00018   0.00000   0.00000
  27        4PZ         0.00000   0.00000   0.00000  -0.00018   0.00000
                          11        12        13        14        15
  11        8PY         0.16370
  12        8PZ         0.00000   0.16370
  13        9PX         0.00000   0.00000   0.10960
  14        9PY         0.00245   0.00000   0.00000   0.14393
  15        9PZ         0.00000   0.00245   0.00000   0.00000   0.14393
  16       10PX         0.00000   0.00000   0.13011   0.00000   0.00000
  17       10PY         0.01262   0.00000   0.00000   0.22493   0.00000
  18       10PZ         0.00000   0.01262   0.00000   0.00000   0.22493
  19       11PX         0.00000   0.00000   0.01975   0.00000   0.00000
  20       11PY         0.00240   0.00000   0.00000   0.04889   0.00000
  21       11PZ         0.00000   0.00240   0.00000   0.00000   0.04889
  22 2   H  1S          0.00000   0.00000   0.00722   0.00000   0.00000
  23        2S          0.00000   0.00000   0.03595   0.00000   0.00000
  24        3S          0.00000   0.00000   0.00229   0.00000   0.00000
  25        4PX         0.00000   0.00000   0.00807   0.00000   0.00000
  26        4PY         0.00005   0.00000   0.00000   0.00112   0.00000
  27        4PZ         0.00000   0.00005   0.00000   0.00000   0.00112
                          16        17        18        19        20
  16       10PX         0.29516
  17       10PY         0.00000   0.65707
  18       10PZ         0.00000   0.00000   0.65707
  19       11PX         0.07907   0.00000   0.00000   0.05320
  20       11PY         0.00000   0.25110   0.00000   0.00000   0.24000
  21       11PZ         0.00000   0.00000   0.25110   0.00000   0.00000
  22 2   H  1S          0.03983   0.00000   0.00000   0.01715   0.00000
  23        2S          0.13382   0.00000   0.00000   0.06915   0.00000
  24        3S          0.01029   0.00000   0.00000   0.00865   0.00000
  25        4PX         0.01655   0.00000   0.00000   0.00050   0.00000
  26        4PY         0.00000   0.00637   0.00000   0.00000   0.00410
  27        4PZ         0.00000   0.00000   0.00637   0.00000   0.00000
                          21        22        23        24        25
  21       11PZ         0.24000
  22 2   H  1S          0.00000   0.06707
  23        2S          0.00000   0.09414   0.27118
  24        3S          0.00000   0.00504   0.02392   0.00474
  25        4PX         0.00000   0.00000   0.00000   0.00000   0.00820
  26        4PY         0.00000   0.00000   0.00000   0.00000   0.00000
  27        4PZ         0.00410   0.00000   0.00000   0.00000   0.00000
                          26        27
  26        4PY         0.00166
  27        4PZ         0.00000   0.00166
     Gross orbital populations:
                           1
   1 1   Cl 1S          0.77726
   2        2S          1.18775
   3        3S          0.89119
   4        4S          1.09366
   5        5S          1.03231
   6        6S          0.95294
   7        7PX         1.55255
   8        7PY         1.54281
   9        7PZ         1.54281
  10        8PX         0.41110
  11        8PY         0.42985
  12        8PZ         0.42985
  13        9PX         0.31261
  14        9PY         0.39921
  15        9PZ         0.39921
  16       10PX         0.67082
  17       10PY         1.07982
  18       10PZ         1.07982
  19       11PX         0.24396
  20       11PY         0.53520
  21       11PZ         0.53520
  22 2   H  1S          0.23052
  23        2S          0.58175
  24        3S          0.02286
  25        4PX         0.03871
  26        4PY         0.01312
  27        4PZ         0.01312
          Condensed to atoms (all electrons):
               1          2
     1  Cl  16.800543   0.299369
     2  H    0.299369   0.600718
 Mulliken charges:
               1
     1  Cl  -0.099913
     2  H    0.099913
 Sum of Mulliken charges =  -0.00000
 Mulliken charges with hydrogens summed into heavy atoms:
               1
     1  Cl  -0.000000

 Bonding Mulliken population analysis:
      Bonding Density Matrix:
                           1         2         3         4         5
   1 1   Cl 1S          0.00000
   2        2S          0.00000   0.00000
   3        3S          0.00000   0.00000   0.00000
   4        4S          0.00000   0.00000   0.00000   0.00000
   5        5S          0.00000   0.00000   0.00000   0.00000   0.00000
   6        6S          0.00000   0.00000   0.00000   0.00000   0.00000
   7        7PX         0.00000   0.00000   0.00000   0.00000   0.00000
   8        7PY         0.00000   0.00000   0.00000   0.00000   0.00000
   9        7PZ         0.00000   0.00000   0.00000   0.00000   0.00000
  10        8PX         0.00000   0.00000   0.00000   0.00000   0.00000
  11        8PY         0.00000   0.00000   0.00000   0.00000   0.00000
  12        8PZ         0.00000   0.00000   0.00000   0.00000   0.00000
  13        9PX         0.00000   0.00000   0.00000   0.00000   0.00000
  14        9PY         0.00000   0.00000   0.00000   0.00000   0.00000
  15        9PZ         0.00000   0.00000   0.00000   0.00000   0.00000
  16       10PX         0.00000   0.00000   0.00000   0.00000   0.00000
  17       10PY         0.00000   0.00000   0.00000   0.00000   0.00000
  18       10PZ         0.00000   0.00000   0.00000   0.00000   0.00000
  19       11PX         0.00000   0.00000   0.00000   0.00000   0.00000
  20       11PY         0.00000   0.00000   0.00000   0.00000   0.00000
  21       11PZ         0.00000   0.00000   0.00000   0.00000   0.00000
  22 2   H  1S          0.00269   0.00763  -0.01489  -0.02872   0.04937
  23        2S          0.00138   0.00384  -0.00639  -0.01302   0.02653
  24        3S         -0.00290  -0.00836   0.01604   0.02631  -0.02944
  25        4PX         0.00185   0.00531  -0.01039  -0.01887   0.02844
  26        4PY        -0.00000  -0.00000   0.00000   0.00000  -0.00000
  27        4PZ        -0.00000  -0.00000   0.00000   0.00000   0.00000
                           6         7         8         9        10
   6        6S          0.00000
   7        7PX         0.00000   0.00000
   8        7PY         0.00000   0.00000   0.00000
   9        7PZ         0.00000   0.00000   0.00000   0.00000
  10        8PX         0.00000   0.00000   0.00000   0.00000   0.00000
  11        8PY         0.00000   0.00000   0.00000   0.00000   0.00000
  12        8PZ         0.00000   0.00000   0.00000   0.00000   0.00000
  13        9PX         0.00000   0.00000   0.00000   0.00000   0.00000
  14        9PY         0.00000   0.00000   0.00000   0.00000   0.00000
  15        9PZ         0.00000   0.00000   0.00000   0.00000   0.00000
  16       10PX         0.00000   0.00000   0.00000   0.00000   0.00000
  17       10PY         0.00000   0.00000   0.00000   0.00000   0.00000
  18       10PZ         0.00000   0.00000   0.00000   0.00000   0.00000
  19       11PX         0.00000   0.00000   0.00000   0.00000   0.00000
  20       11PY         0.00000   0.00000   0.00000   0.00000   0.00000
  21       11PZ         0.00000   0.00000   0.00000   0.00000   0.00000
  22 2   H  1S         -0.01714   0.06679  -0.00000  -0.00000  -0.02449
  23        2S         -0.09866   0.13844   0.00000   0.00000  -0.05085
  24        3S         -0.03978   0.01718  -0.00000  -0.00000  -0.00634
  25        4PX         0.00452   0.02149  -0.00000   0.00000  -0.00788
  26        4PY        -0.00000   0.00000  -0.01309  -0.00000  -0.00000
  27        4PZ        -0.00000   0.00000  -0.00000  -0.01309  -0.00000
                          11        12        13        14        15
  11        8PY         0.00000
  12        8PZ         0.00000   0.00000
  13        9PX         0.00000   0.00000   0.00000
  14        9PY         0.00000   0.00000   0.00000   0.00000
  15        9PZ         0.00000   0.00000   0.00000   0.00000   0.00000
  16       10PX         0.00000   0.00000   0.00000   0.00000   0.00000
  17       10PY         0.00000   0.00000   0.00000   0.00000   0.00000
  18       10PZ         0.00000   0.00000   0.00000   0.00000   0.00000
  19       11PX         0.00000   0.00000   0.00000   0.00000   0.00000
  20       11PY         0.00000   0.00000   0.00000   0.00000   0.00000
  21       11PZ         0.00000   0.00000   0.00000   0.00000   0.00000
  22 2   H  1S         -0.00000   0.00000  -0.07971  -0.00000  -0.00000
  23        2S         -0.00000  -0.00000  -0.16607   0.00000  -0.00000
  24        3S          0.00000   0.00000  -0.02028  -0.00000   0.00000
  25        4PX         0.00000  -0.00000  -0.02640   0.00000  -0.00000
  26        4PY         0.00495   0.00000  -0.00000   0.01518   0.00000
  27        4PZ         0.00000   0.00495   0.00000   0.00000   0.01518
                          16        17        18        19        20
  16       10PX         0.00000
  17       10PY         0.00000   0.00000
  18       10PZ         0.00000   0.00000   0.00000
  19       11PX         0.00000   0.00000   0.00000   0.00000
  20       11PY         0.00000   0.00000   0.00000   0.00000   0.00000
  21       11PZ         0.00000   0.00000   0.00000   0.00000   0.00000
  22 2   H  1S         -0.13075  -0.00000   0.00000  -0.05412  -0.00000
  23        2S         -0.27578   0.00000  -0.00000  -0.11531   0.00000
  24        3S         -0.03523  -0.00000   0.00000  -0.01518  -0.00000
  25        4PX        -0.04267   0.00000   0.00000  -0.01749   0.00000
  26        4PY        -0.00000   0.03306   0.00000  -0.00000   0.01998
  27        4PZ         0.00000   0.00000   0.03306   0.00000   0.00000
                          21        22        23        24        25
  21       11PZ         0.00000
  22 2   H  1S          0.00000   0.00000
  23        2S         -0.00000   0.00000   0.00000
  24        3S          0.00000   0.00000   0.00000   0.00000
  25        4PX        -0.00000   0.00000   0.00000   0.00000   0.00000
  26        4PY         0.00000   0.00000   0.00000   0.00000   0.00000
  27        4PZ         0.01998   0.00000   0.00000   0.00000   0.00000
                          26        27
  26        4PY         0.00000
  27        4PZ         0.00000   0.00000
    Full Bonding Mulliken population analysis:
                           1         2         3         4         5
   1 1   Cl 1S          0.00000
   2        2S          0.00000   0.00000
   3        3S          0.00000   0.00000   0.00000
   4        4S          0.00000   0.00000   0.00000   0.00000
   5        5S          0.00000   0.00000   0.00000   0.00000   0.00000
   6        6S          0.00000   0.00000   0.00000   0.00000   0.00000
   7        7PX         0.00000   0.00000   0.00000   0.00000   0.00000
   8        7PY         0.00000   0.00000   0.00000   0.00000   0.00000
   9        7PZ         0.00000   0.00000   0.00000   0.00000   0.00000
  10        8PX         0.00000   0.00000   0.00000   0.00000   0.00000
  11        8PY         0.00000   0.00000   0.00000   0.00000   0.00000
  12        8PZ         0.00000   0.00000   0.00000   0.00000   0.00000
  13        9PX         0.00000   0.00000   0.00000   0.00000   0.00000
  14        9PY         0.00000   0.00000   0.00000   0.00000   0.00000
  15        9PZ         0.00000   0.00000   0.00000   0.00000   0.00000
  16       10PX         0.00000   0.00000   0.00000   0.00000   0.00000
  17       10PY         0.00000   0.00000   0.00000   0.00000   0.00000
  18       10PZ         0.00000   0.00000   0.00000   0.00000   0.00000
  19       11PX         0.00000   0.00000   0.00000   0.00000   0.00000
  20       11PY         0.00000   0.00000   0.00000   0.00000   0.00000
  21       11PZ         0.00000   0.00000   0.00000   0.00000   0.00000
  22 2   H  1S          0.00000   0.00000  -0.00002  -0.00019   0.00425
  23        2S          0.00001   0.00005  -0.00028  -0.00117   0.00736
  24        3S         -0.00002  -0.00016   0.00107   0.00349  -0.01081
  25        4PX         0.00000   0.00004  -0.00034  -0.00149   0.00749
  26        4PY         0.00000   0.00000   0.00000   0.00000   0.00000
  27        4PZ         0.00000   0.00000   0.00000   0.00000   0.00000
                           6         7         8         9        10
   6        6S          0.00000
   7        7PX         0.00000   0.00000
   8        7PY         0.00000   0.00000   0.00000
   9        7PZ         0.00000   0.00000   0.00000   0.00000
  10        8PX         0.00000   0.00000   0.00000   0.00000   0.00000
  11        8PY         0.00000   0.00000   0.00000   0.00000   0.00000
  12        8PZ         0.00000   0.00000   0.00000   0.00000   0.00000
  13        9PX         0.00000   0.00000   0.00000   0.00000   0.00000
  14        9PY         0.00000   0.00000   0.00000   0.00000   0.00000
  15        9PZ         0.00000   0.00000   0.00000   0.00000   0.00000
  16       10PX         0.00000   0.00000   0.00000   0.00000   0.00000
  17       10PY         0.00000   0.00000   0.00000   0.00000   0.00000
  18       10PZ         0.00000   0.00000   0.00000   0.00000   0.00000
  19       11PX         0.00000   0.00000   0.00000   0.00000   0.00000
  20       11PY         0.00000   0.00000   0.00000   0.00000   0.00000
  21       11PZ         0.00000   0.00000   0.00000   0.00000   0.00000
  22 2   H  1S         -0.00350  -0.00070   0.00000   0.00000   0.00023
  23        2S         -0.04612  -0.00791   0.00000   0.00000   0.00166
  24        3S         -0.02525  -0.00049   0.00000   0.00000   0.00010
  25        4PX         0.00110  -0.00183   0.00000   0.00000   0.00041
  26        4PY         0.00000   0.00000  -0.00018   0.00000   0.00000
  27        4PZ         0.00000   0.00000   0.00000  -0.00018   0.00000
                          11        12        13        14        15
  11        8PY         0.00000
  12        8PZ         0.00000   0.00000
  13        9PX         0.00000   0.00000   0.00000
  14        9PY         0.00000   0.00000   0.00000   0.00000
  15        9PZ         0.00000   0.00000   0.00000   0.00000   0.00000
  16       10PX         0.00000   0.00000   0.00000   0.00000   0.00000
  17       10PY         0.00000   0.00000   0.00000   0.00000   0.00000
  18       10PZ         0.00000   0.00000   0.00000   0.00000   0.00000
  19       11PX         0.00000   0.00000   0.00000   0.00000   0.00000
  20       11PY         0.00000   0.00000   0.00000   0.00000   0.00000
  21       11PZ         0.00000   0.00000   0.00000   0.00000   0.00000
  22 2   H  1S          0.00000   0.00000   0.00722   0.00000   0.00000
  23        2S          0.00000   0.00000   0.03595   0.00000   0.00000
  24        3S          0.00000   0.00000   0.00229   0.00000   0.00000
  25        4PX         0.00000   0.00000   0.00807   0.00000   0.00000
  26        4PY         0.00005   0.00000   0.00000   0.00112   0.00000
  27        4PZ         0.00000   0.00005   0.00000   0.00000   0.00112
                          16        17        18        19        20
  16       10PX         0.00000
  17       10PY         0.00000   0.00000
  18       10PZ         0.00000   0.00000   0.00000
  19       11PX         0.00000   0.00000   0.00000   0.00000
  20       11PY         0.00000   0.00000   0.00000   0.00000   0.00000
  21       11PZ         0.00000   0.00000   0.00000   0.00000   0.00000
  22 2   H  1S          0.03983   0.00000   0.00000   0.01715   0.00000
  23        2S          0.13382   0.00000   0.00000   0.06915   0.00000
  24        3S          0.01029   0.00000   0.00000   0.00865   0.00000
  25        4PX         0.01655   0.00000   0.00000   0.00050   0.00000
  26        4PY         0.00000   0.00637   0.00000   0.00000   0.00410
  27        4PZ         0.00000   0.00000   0.00637   0.00000   0.00000
                          21        22        23        24        25
  21       11PZ         0.00000
  22 2   H  1S          0.00000   0.00000
  23        2S          0.00000   0.00000   0.00000
  24        3S          0.00000   0.00000   0.00000   0.00000
  25        4PX         0.00000   0.00000   0.00000   0.00000   0.00000
  26        4PY         0.00000   0.00000   0.00000   0.00000   0.00000
  27        4PZ         0.00410   0.00000   0.00000   0.00000   0.00000
                          26        27
  26        4PY         0.00000
  27        4PZ         0.00000   0.00000
     Bonding Gross orbital populations:
                           1
   1 1   Cl 1S         -0.00001
   2        2S         -0.00007
   3        3S          0.00044
   4        4S          0.00064
   5        5S          0.00828
   6        6S         -0.07377
   7        7PX        -0.01093
   8        7PY        -0.00018
   9        7PZ        -0.00018
  10        8PX         0.00241
  11        8PY         0.00005
  12        8PZ         0.00005
  13        9PX         0.05352
  14        9PY         0.00112
  15        9PZ         0.00112
  16       10PX         0.20049
  17       10PY         0.00637
  18       10PZ         0.00637
  19       11PX         0.09545
  20       11PY         0.00410
  21       11PZ         0.00410
  22 2   H  1S          0.06427
  23        2S          0.19251
  24        3S         -0.01084
  25        4PX         0.03051
  26        4PY         0.01146
  27        4PZ         0.01146
          Bonding Condensed to atoms (all electrons):
               1          2
     1  Cl   0.000000   0.299369
     2  H    0.299369   0.000000
 Bonding Mulliken charges:
               1
     1  Cl  16.700631
     2  H    0.700631
 Sum of Bonding Mulliken charges =  17.40126
 Bonding Mulliken charges with hydrogens summed into heavy atoms:
               1
     1  Cl  17.401262
 GSVD:  LWork=        -945 too small for GESVD, short by        4050 words or        4050 for optimal perf.
 Atomic Valencies and Mayer Atomic Bond Orders:
               1          2
     1  Cl   1.015228   1.015228
     2  H    1.015228   1.015228
 Lowdin Atomic Charges:
               1
     1  Cl   0.042056
     2  H   -0.042056
 Sum of Lowdin charges  =   0.00000
 Lowdin atomic charges with hydrogens summed into heavy atoms:
               1
     1  Cl   0.000000
     2  H    0.000000
 Sum of Lowdin charges  =   0.00000
 Dipole moment from Lowdin charges (Debye):
    X=     0.2610    Y=     0.0000    Z=     0.0000  Tot=     0.2610
 Electronic spatial extent (au):  <R**2>=             34.7864
 Charge=              0.0000 electrons
 Dipole moment (field-independent basis, Debye):
    X=             -1.6518    Y=              0.0000    Z=             -0.0000  Tot=              1.6518
 Quadrupole moment (field-independent basis, Debye-Ang):
   XX=            -10.5868   YY=            -14.2867   ZZ=            -14.2867
   XY=              0.0000   XZ=              0.0000   YZ=              0.0000
 Traceless Quadrupole moment (field-independent basis, Debye-Ang):
   XX=              2.4666   YY=             -1.2333   ZZ=             -1.2333
   XY=              0.0000   XZ=              0.0000   YZ=              0.0000
 Octapole moment (field-independent basis, Debye-Ang**2):
  XXX=             -2.0479  YYY=              0.0000  ZZZ=             -0.0000  XYY=              0.0044
  XXY=             -0.0000  XXZ=             -0.0000  XZZ=              0.0044  YZZ=              0.0000
  YYZ=             -0.0000  XYZ=              0.0000
 Hexadecapole moment (field-independent basis, Debye-Ang**3):
 XXXX=            -14.8872 YYYY=            -17.9797 ZZZZ=            -17.9797 XXXY=              0.0000
 XXXZ=              0.0000 YYYX=             -0.0000 YYYZ=              0.0000 ZZZX=              0.0000
 ZZZY=              0.0000 XXYY=             -6.2029 XXZZ=             -6.2029 YYZZ=             -5.9932
 XXYZ=              0.0000 YYXZ=              0.0000 ZZXY=             -0.0000
 N-N= 6.963466465629D+00 E-N=-1.109366197449D+03  KE= 4.597355774366D+02
 Orbital energies and kinetic energies (alpha):
                                 1                 2
   1         O              -101.567851        137.005470
   2         O                -9.483203         21.495686
   3         O                -7.247735         20.532118
   4         O                -7.237477         20.550746
   5         O                -7.237477         20.550746
   6         O                -0.860220          3.000761
   7         O                -0.477349          2.088494
   8         O                -0.340956          2.321884
   9         O                -0.340956          2.321884
  10         V                -0.010931          1.234996
  11         V                 0.195522          0.684906
  12         V                 0.275918          1.419305
  13         V                 0.275918          1.419305
  14         V                 0.292939          1.763276
  15         V                 0.725103          3.559947
  16         V                 1.211312          2.003208
  17         V                 1.211312          2.003208
  18         V                 1.524842          2.720599
  19         V                 2.000976          6.424387
  20         V                 2.094505          8.391754
  21         V                 2.094505          8.391754
  22         V                 2.301134          6.024218
  23         V                 9.490697         37.100534
  24         V                25.354515         43.033953
  25         V                25.354515         43.033953
  26         V                25.537102         43.486698
  27         V               215.443086        552.784163
 Total kinetic energy from orbitals= 4.597355774366D+02

 Test job not archived.
 1\1\GINC-NODE7\FOpt\RB3LYP\6-311G(3d2f,3p2d)\Cl1H1\SD\23-Dec-2025\0\\#
  B3LYP/6-311g(3d2f,3p2d) SCF=Tight opt=(tight,maxcycles=300) freq=(ram
 an,hpmodes) nosymm int=finegrid density pop=(full,bonding) iop(6/80=1)
 \\HCl B3LYP/6-311g(3d2f,3p2d)\\0,1\Cl,0.0459435563,0.,0.\H,-1.24594355
 63,0.,0.\\Version=ES64L-G16RevA.03\HF=-460.825528\RMSD=2.712e-09\RMSF=
 8.593e-09\Dipole=-0.6498654,0.,0.\Quadrupole=1.833844,-0.916922,-0.916
 922,0.,0.,0.\PG=C*V [C*(H1Cl1)]\\@


 I MET A TRAVELLER FROM AN ANTIQUE LAND
 WHO SAID... TWO VAST AND TRUNKLESS LEGS OF STONE
 STAND IN THE DESERT..... NEAR THEM,  ON THE SAND,
 HALF SUNK,  A SHATTERED VISAGE LIES,  WHOSE FROWN,
 AND WRINKLED LIP,  AND SNEER OF COLD COMMAND
 TELL THAT ITS SCULPTOR WELL THOSE PASSIONS READ
 WHICH YET SURVIVE,  STAMPED ON THESE LIFELESS THINGS
 THE HAND THAT MOCKED THEM,  AND THE HEART THAT FED-
 AND ON THE PEDESTAL THESE WORDS APPEAR 
 MY NAME IS OZYMANDIAS, KING OF KINGS--   
 LOOK ON MY WORKS YE MIGHTY AND DESPAIR. 
 NOTHING BESIDE REMAINS,  ROUND THE DECAY 
 OF THAT COLOSSAL WRECK,  BOUNDLESS AND BARE
 THE LONE AND LEVEL SANDS STRETCH FAR AWAY.
                                    SHELLEY
 Job cpu time:       0 days  0 hours  1 minutes 12.3 seconds.
 Elapsed time:       0 days  0 hours  0 minutes  3.8 seconds.
 File lengths (MBytes):  RWF=      6 Int=      0 D2E=      0 Chk=      2 Scr=      1
 Normal termination of Gaussian 16 at Tue Dec 23 16:25:50 2025.
 Link1:  Proceeding to internal job step number  2.
 ----------------------------------------------------------------------
 #N Geom=AllCheck Guess=TCheck SCRF=Check Test GenChk RB3LYP/6-311G(3d2
 f,3p2d) Freq
 ----------------------------------------------------------------------
 1/6=300,7=10,10=4,29=7,30=1,38=1,40=1/1,3;
 2/12=2,15=1,40=1/2;
 3/5=4,6=6,7=707,11=2,14=-4,25=1,30=1,70=2,71=2,74=-5,75=-4,116=1,140=1/1,2,3;
 4/5=101/1;
 5/5=2,32=2,38=6,98=1/2;
 8/6=4,10=90,11=11/1;
 10/13=10,15=4,31=1/2;
 11/6=3,8=1,9=11,15=111,16=1,31=1/1,2,10;
 10/6=1,31=1/2;
 6/7=3,22=-1,27=20,28=1/1;
 7/8=11,10=1,25=1,30=1/1,2,3,16;
 1/6=300,7=10,10=4,30=1/3;
 99//99;
 Structure from the checkpoint file:  "HCl_B3LYP_6-311g.chk"
 ---------------------------
 HCl B3LYP/6-311g(3d2f,3p2d)
 ---------------------------
 Charge =  0 Multiplicity = 1
 Redundant internal coordinates found in file.  (old form).
 Cl,0,0.0459435563,0.,0.
 H,0,-1.2459435563,0.,0.
 Recover connectivity data from disk.

 GradGradGradGradGradGradGradGradGradGradGradGradGradGradGradGradGradGrad
 Berny optimization.
 Initialization pass.
                           ----------------------------
                           !    Initial Parameters    !
                           ! (Angstroms and Degrees)  !
 --------------------------                            --------------------------
 ! Name  Definition              Value          Derivative Info.                !
 --------------------------------------------------------------------------------
 ! R1    R(1,2)                  1.2919         calculate D2E/DX2 analytically  !
 --------------------------------------------------------------------------------
 Trust Radius=3.00D-01 FncErr=1.00D-07 GrdErr=1.00D-07 EigMax=2.50D+02 EigMin=1.00D-04
 Number of steps in this run=      2 maximum allowed number of steps=      2.
 GradGradGradGradGradGradGradGradGradGradGradGradGradGradGradGradGradGrad

                          Input orientation:                          
 ---------------------------------------------------------------------
 Center     Atomic      Atomic             Coordinates (Angstroms)
 Number     Number       Type             X           Y           Z
 ---------------------------------------------------------------------
      1         17           0        0.045944    0.000000    0.000000
      2          1           0       -1.245944    0.000000    0.000000
 ---------------------------------------------------------------------
 Symmetry turned off by external request.
 Stoichiometry    ClH
 Framework group  C*V[C*(HCl)]
 Deg. of freedom     1
 Full point group                 C*V     NOp   4
 Rotational constants (GHZ):           0.0000000         309.1167915         309.1167915
 Standard basis: 6-311G(3d2f,3p2d) (5D, 7F)
    27 basis functions,    51 primitive gaussians,    27 cartesian basis functions
     9 alpha electrons        9 beta electrons
       nuclear repulsion energy         6.9634664656 Hartrees.
 NAtoms=    2 NActive=    2 NUniq=    2 SFac= 1.00D+00 NAtFMM=   60 NAOKFM=F Big=F
 Integral buffers will be    131072 words long.
 Raffenetti 2 integral format.
 Two-electron integral symmetry is turned off.
 One-electron integrals computed using PRISM.
 NBasis=    27 RedAO= T EigKep=  3.15D-02  NBF=    27
 NBsUse=    27 1.00D-06 EigRej= -1.00D+00 NBFU=    27
 Initial guess from the checkpoint file:  "HCl_B3LYP_6-311g.chk"
 B after Tr=     0.000000    0.000000    0.000000
         Rot=    1.000000    0.000000    0.000000    0.000000 Ang=   0.00 deg.
 Keep R1 ints in memory in canonical form, NReq=20705102.
 Requested convergence on RMS density matrix=1.00D-08 within 128 cycles.
 Requested convergence on MAX density matrix=1.00D-06.
 Requested convergence on             energy=1.00D-06.
 No special actions if energy rises.
 SCF Done:  E(RB3LYP) =  -460.825528036     A.U. after    1 cycles
            NFock=  1  Conv=0.49D-09     -V/T= 2.0024
 DoSCS=F DFT=T ScalE2(SS,OS)=  1.000000  1.000000
 Range of M.O.s used for correlation:     1    27
 NBasis=    27 NAE=     9 NBE=     9 NFC=     0 NFV=     0
 NROrb=     27 NOA=     9 NOB=     9 NVA=    18 NVB=    18
          Differentiating once with respect to electric field.
                with respect to dipole field.
          Electric field/nuclear overlap derivatives assumed to be zero.
 Keep R1 ints in memory in canonical form, NReq=20663931.
          There are     3 degrees of freedom in the 1st order CPHF.  IDoFFX=0 NUNeed=     3.
      3 vectors produced by pass  0 Test12= 5.40D-15 3.33D-08 XBig12= 8.39D+00 2.73D+00.
 AX will form     3 AO Fock derivatives at one time.
      3 vectors produced by pass  1 Test12= 5.40D-15 3.33D-08 XBig12= 7.14D-01 4.95D-01.
      3 vectors produced by pass  2 Test12= 5.40D-15 3.33D-08 XBig12= 8.14D-02 1.85D-01.
      3 vectors produced by pass  3 Test12= 5.40D-15 3.33D-08 XBig12= 2.87D-04 6.61D-03.
      3 vectors produced by pass  4 Test12= 5.40D-15 3.33D-08 XBig12= 7.04D-07 4.37D-04.
      3 vectors produced by pass  5 Test12= 5.40D-15 3.33D-08 XBig12= 2.61D-09 2.90D-05.
      1 vectors produced by pass  6 Test12= 5.40D-15 3.33D-08 XBig12= 1.26D-11 1.37D-06.
      1 vectors produced by pass  7 Test12= 5.40D-15 3.33D-08 XBig12= 7.09D-14 8.88D-08.
 InvSVY:  IOpt=1 It=  1 EMax= 4.44D-16
 Solved reduced A of dimension    20 with     3 vectors.
 End of Minotr F.D. properties file   721 does not exist.
 End of Minotr F.D. properties file   722 does not exist.
 End of Minotr F.D. properties file   788 does not exist.
 Symmetrizing basis deriv contribution to polar:
 IMax=3 JMax=2 DiffMx= 0.00D+00
 G2DrvN: will do     3 centers at a time, making    1 passes.
 PxScal for G2LodP:  IOpCl= 0 ISclPx=1 IMOff=     1 NMtTot=     4 NTT=     378 ScalPx= 1.24D+00
 Calling FoFCou, ICntrl=  3107 FMM=F I1Cent=   0 AccDes= 0.00D+00.
 End of G2Drv F.D. properties file   721 does not exist.
 End of G2Drv F.D. properties file   722 does not exist.
 End of G2Drv F.D. properties file   788 does not exist.
          IDoAtm=11
          Differentiating once with respect to electric field.
                with respect to dipole field.
          Differentiating once with respect to nuclear coordinates.
 Keep R1 ints in memory in canonical form, NReq=20663401.
          There are     9 degrees of freedom in the 1st order CPHF.  IDoFFX=5 NUNeed=     9.
 Will reuse    3 saved solutions.
      3 vectors produced by pass  0 Test12= 1.80D-15 1.11D-08 XBig12= 3.13D-02 1.18D-01.
 AX will form     3 AO Fock derivatives at one time.
      3 vectors produced by pass  1 Test12= 1.80D-15 1.11D-08 XBig12= 4.28D-03 5.56D-02.
      3 vectors produced by pass  2 Test12= 1.80D-15 1.11D-08 XBig12= 4.50D-04 1.18D-02.
      3 vectors produced by pass  3 Test12= 1.80D-15 1.11D-08 XBig12= 4.95D-06 8.99D-04.
      3 vectors produced by pass  4 Test12= 1.80D-15 1.11D-08 XBig12= 1.97D-08 6.62D-05.
      3 vectors produced by pass  5 Test12= 1.80D-15 1.11D-08 XBig12= 5.66D-11 2.31D-06.
      1 vectors produced by pass  6 Test12= 1.80D-15 1.11D-08 XBig12= 7.56D-13 3.42D-07.
      1 vectors produced by pass  7 Test12= 1.80D-15 1.11D-08 XBig12= 1.30D-15 1.48D-08.
 InvSVY:  IOpt=1 It=  1 EMax= 3.33D-16
 Solved reduced A of dimension    20 with     3 vectors.
 Isotropic polarizability for W=    0.000000        7.48 Bohr**3.
 End of Minotr F.D. properties file   721 does not exist.
 End of Minotr F.D. properties file   722 does not exist.
 End of Minotr F.D. properties file   788 does not exist.

 **********************************************************************

            Population analysis using the SCF density.

 **********************************************************************

 Alpha  occ. eigenvalues -- -101.56785  -9.48320  -7.24774  -7.23748  -7.23748
 Alpha  occ. eigenvalues --   -0.86022  -0.47735  -0.34096  -0.34096
 Alpha virt. eigenvalues --   -0.01093   0.19552   0.27592   0.27592   0.29294
 Alpha virt. eigenvalues --    0.72510   1.21131   1.21131   1.52484   2.00098
 Alpha virt. eigenvalues --    2.09451   2.09451   2.30113   9.49070  25.35452
 Alpha virt. eigenvalues --   25.35452  25.53710 215.44309
     Molecular Orbital Coefficients:
                           1         2         3         4         5
                           O         O         O         O         O
     Eigenvalues --  -101.56785  -9.48320  -7.24774  -7.23748  -7.23748
   1 1   Cl 1S          0.41161  -0.12179  -0.00141   0.00000  -0.00000
   2        2S          0.65408  -0.32688  -0.00384   0.00000   0.00000
   3        3S          0.01496   0.49701   0.00638   0.00000  -0.00000
   4        4S         -0.00388   0.61186   0.00659  -0.00000   0.00000
   5        5S          0.00129   0.05486  -0.00005   0.00000  -0.00000
   6        6S         -0.00064  -0.01586   0.00026  -0.00000   0.00000
   7        7PX        -0.00013  -0.00885   0.80442  -0.00000   0.00000
   8        7PY         0.00000   0.00000   0.00000   0.80036   0.08513
   9        7PZ         0.00000   0.00000  -0.00000  -0.08513   0.80036
  10        8PX        -0.00002   0.00293  -0.27254   0.00000  -0.00000
  11        8PY         0.00000   0.00000  -0.00000  -0.27125  -0.02885
  12        8PZ         0.00000   0.00000   0.00000   0.02885  -0.27125
  13        9PX         0.00015  -0.00084   0.05348  -0.00000   0.00000
  14        9PY        -0.00000  -0.00000   0.00000   0.05193   0.00552
  15        9PZ        -0.00000  -0.00000  -0.00000  -0.00552   0.05193
  16       10PX        -0.00018  -0.00176  -0.00145  -0.00000   0.00000
  17       10PY         0.00000   0.00000   0.00000  -0.00080  -0.00009
  18       10PZ         0.00000   0.00000   0.00000   0.00009  -0.00080
  19       11PX         0.00018   0.00330   0.00005  -0.00000  -0.00000
  20       11PY        -0.00000  -0.00000  -0.00000   0.00001   0.00000
  21       11PZ         0.00000   0.00000  -0.00000  -0.00000   0.00001
  22 2   H  1S          0.00002   0.00017  -0.00002   0.00000  -0.00000
  23        2S         -0.00009  -0.00123  -0.00061  -0.00000   0.00000
  24        3S          0.00025   0.00524   0.00009   0.00000  -0.00000
  25        4PX        -0.00008  -0.00119  -0.00037   0.00000   0.00000
  26        4PY        -0.00000  -0.00000   0.00000   0.00006   0.00001
  27        4PZ         0.00000  -0.00000   0.00000  -0.00001   0.00006
                           6         7         8         9        10
                           O         O         O         O         V
     Eigenvalues --    -0.86022  -0.47735  -0.34096  -0.34096  -0.01093
   1 1   Cl 1S          0.03624   0.01313  -0.00000   0.00000  -0.01174
   2        2S          0.10370   0.03776  -0.00000   0.00000  -0.03430
   3        3S         -0.20987  -0.07821   0.00000  -0.00000   0.07557
   4        4S         -0.39096  -0.14291  -0.00000  -0.00000   0.12026
   5        5S          0.61329   0.21154   0.00000   0.00000  -0.14587
   6        6S          0.46841   0.33623  -0.00000  -0.00000  -0.87269
   7        7PX         0.04371  -0.18661   0.00000  -0.00000  -0.11781
   8        7PY        -0.00000  -0.00000  -0.21766   0.06947  -0.00000
   9        7PZ         0.00000  -0.00000  -0.06947  -0.21766  -0.00000
  10        8PX        -0.01551   0.06873   0.00000   0.00000   0.04554
  11        8PY        -0.00000  -0.00000   0.08220  -0.02623   0.00000
  12        8PZ        -0.00000  -0.00000   0.02623   0.08220   0.00000
  13        9PX        -0.05422   0.22136  -0.00000  -0.00000   0.13618
  14        9PY         0.00000   0.00000   0.25067  -0.08001  -0.00000
  15        9PZ        -0.00000   0.00000   0.08001   0.25067   0.00000
  16       10PX        -0.06239   0.37905  -0.00000  -0.00000   0.37549
  17       10PY         0.00000  -0.00000   0.54604  -0.17428   0.00000
  18       10PZ        -0.00000  -0.00000   0.17428   0.54604  -0.00000
  19       11PX        -0.01707   0.16216  -0.00000   0.00000   0.70610
  20       11PY         0.00000   0.00000   0.33001  -0.10533  -0.00000
  21       11PZ        -0.00000  -0.00000   0.10533   0.33001   0.00000
  22 2   H  1S          0.09436  -0.15694  -0.00000   0.00000   0.11781
  23        2S          0.13931  -0.34085  -0.00000  -0.00000   0.29183
  24        3S         -0.00800  -0.04776   0.00000   0.00000   1.40004
  25        4PX         0.04041  -0.04964  -0.00000   0.00000   0.00061
  26        4PY        -0.00000   0.00000   0.02747  -0.00877  -0.00000
  27        4PZ         0.00000   0.00000   0.00877   0.02747   0.00000
                          11        12        13        14        15
                           V         V         V         V         V
     Eigenvalues --     0.19552   0.27592   0.27592   0.29294   0.72510
   1 1   Cl 1S         -0.00181  -0.00000  -0.00000  -0.00671  -0.03400
   2        2S         -0.00538  -0.00000  -0.00000  -0.01909  -0.09285
   3        3S          0.01289   0.00000   0.00000   0.03765   0.14913
   4        4S          0.01394   0.00000   0.00000   0.09022   0.62534
   5        5S          0.06660  -0.00000  -0.00000  -0.24195  -2.31376
   6        6S         -0.22098  -0.00000  -0.00000  -0.18543   2.75428
   7        7PX        -0.01000   0.00000   0.00000   0.15189  -0.05623
   8        7PY        -0.00000   0.13591  -0.04514   0.00000   0.00000
   9        7PZ        -0.00000   0.04514   0.13591  -0.00000   0.00000
  10        8PX         0.00454  -0.00000  -0.00000  -0.07023   0.01489
  11        8PY         0.00000  -0.06277   0.02085   0.00000   0.00000
  12        8PZ         0.00000  -0.02085  -0.06277   0.00000  -0.00000
  13        9PX        -0.00932  -0.00000  -0.00000  -0.09573   0.16606
  14        9PY         0.00000  -0.09583   0.03183  -0.00000  -0.00000
  15        9PZ         0.00000  -0.03183  -0.09583   0.00000  -0.00000
  16       10PX         0.10989  -0.00000  -0.00000  -1.04521  -0.11015
  17       10PY         0.00000  -0.88154   0.29278   0.00000   0.00000
  18       10PZ         0.00000  -0.29278  -0.88154   0.00000  -0.00000
  19       11PX         0.74779   0.00000   0.00000   1.38612  -0.77670
  20       11PY         0.00000   1.17147  -0.38907  -0.00000  -0.00000
  21       11PZ        -0.00000   0.38907   1.17147  -0.00000   0.00000
  22 2   H  1S          0.12352  -0.00000  -0.00000  -0.08229   0.09281
  23        2S          1.38459  -0.00000  -0.00000  -0.61817  -0.14527
  24        3S         -0.95452   0.00000   0.00000   1.19316  -1.28877
  25        4PX         0.10493  -0.00000  -0.00000  -0.02609  -0.21558
  26        4PY        -0.00000   0.00004  -0.00001  -0.00000  -0.00000
  27        4PZ        -0.00000   0.00001   0.00004  -0.00000  -0.00000
                          16        17        18        19        20
                           V         V         V         V         V
     Eigenvalues --     1.21131   1.21131   1.52484   2.00098   2.09451
   1 1   Cl 1S         -0.00000  -0.00000  -0.01233  -0.00551   0.00000
   2        2S         -0.00000  -0.00000  -0.03470  -0.01506   0.00000
   3        3S          0.00000  -0.00000   0.06558   0.02413  -0.00000
   4        4S          0.00000   0.00000   0.20680   0.11652  -0.00000
   5        5S         -0.00000   0.00000  -0.51241  -0.42369   0.00000
   6        6S          0.00000  -0.00000  -0.20007   0.31212   0.00000
   7        7PX         0.00000   0.00000   0.03254   0.38462   0.00000
   8        7PY         0.04197   0.01079  -0.00000  -0.00000  -0.50675
   9        7PZ        -0.01079   0.04197   0.00000   0.00000  -0.02978
  10        8PX        -0.00000  -0.00000   0.00677  -0.09498  -0.00000
  11        8PY        -0.01436  -0.00369   0.00000   0.00000   0.12432
  12        8PZ         0.00369  -0.01436  -0.00000  -0.00000   0.00731
  13        9PX        -0.00000  -0.00000  -0.33194  -1.46040  -0.00000
  14        9PY        -0.09085  -0.02336   0.00000   0.00000   1.90119
  15        9PZ         0.02336  -0.09085  -0.00000  -0.00000   0.11174
  16       10PX         0.00000   0.00000   1.16495   1.71521   0.00000
  17       10PY        -0.02994  -0.00770  -0.00000  -0.00000  -1.84627
  18       10PZ         0.00770  -0.02994   0.00000   0.00000  -0.10851
  19       11PX        -0.00000   0.00000  -0.33370  -0.55260  -0.00000
  20       11PY        -0.17467  -0.04492   0.00000   0.00000   0.58866
  21       11PZ         0.04492  -0.17467   0.00000  -0.00000   0.03460
  22 2   H  1S          0.00000   0.00000   0.19313  -0.96865   0.00000
  23        2S         -0.00000   0.00000   0.12259   1.63566  -0.00000
  24        3S          0.00000   0.00000   0.22101  -0.90594   0.00000
  25        4PX         0.00000   0.00000   1.25641   0.14211  -0.00000
  26        4PY         0.98838   0.25417  -0.00000   0.00000   0.12059
  27        4PZ        -0.25417   0.98838   0.00000  -0.00000   0.00709
                          21        22        23        24        25
                           V         V         V         V         V
     Eigenvalues --     2.09451   2.30113   9.49070  25.35452  25.35452
   1 1   Cl 1S         -0.00000  -0.00184   0.11851  -0.00000   0.00000
   2        2S         -0.00000  -0.00452   0.48053  -0.00000   0.00000
   3        3S          0.00000   0.00257  -2.64534   0.00000  -0.00000
   4        4S          0.00000   0.05940   3.09070  -0.00000   0.00000
   5        5S         -0.00000  -0.16225  -1.69168   0.00000  -0.00000
   6        6S          0.00000  -0.15202   0.85429  -0.00000   0.00000
   7        7PX         0.00000  -0.33398  -0.00289  -0.00000   0.00000
   8        7PY         0.02978  -0.00000   0.00000  -0.80395  -2.03506
   9        7PZ        -0.50675  -0.00000  -0.00000  -2.03506   0.80395
  10        8PX        -0.00000   0.08214  -0.00938  -0.00000   0.00000
  11        8PY        -0.00731   0.00000   0.00000  -0.64404  -1.63027
  12        8PZ         0.12432   0.00000  -0.00000  -1.63027   0.64404
  13        9PX        -0.00000   1.26628  -0.04761   0.00000  -0.00000
  14        9PY        -0.11174   0.00000  -0.00000   0.85129   2.15487
  15        9PZ         1.90119   0.00000   0.00000   2.15487  -0.85129
  16       10PX         0.00000  -0.97578   0.17698  -0.00000   0.00000
  17       10PY         0.10851  -0.00000   0.00000  -0.39744  -1.00605
  18       10PZ        -1.84627  -0.00000  -0.00000  -1.00605   0.39744
  19       11PX        -0.00000   0.51190  -0.21555   0.00000  -0.00000
  20       11PY        -0.03460   0.00000  -0.00000   0.10412   0.26357
  21       11PZ         0.58866   0.00000   0.00000   0.26357  -0.10412
  22 2   H  1S         -0.00000  -1.22633  -0.03123  -0.00000   0.00000
  23        2S          0.00000   1.45981   0.12939  -0.00000   0.00000
  24        3S         -0.00000  -0.33411  -0.32977   0.00000  -0.00000
  25        4PX         0.00000   0.25890   0.11805   0.00000  -0.00000
  26        4PY        -0.00709   0.00000  -0.00000   0.01022   0.02588
  27        4PZ         0.12059   0.00000   0.00000   0.02588  -0.01022
                          26        27
                           V         V
     Eigenvalues --    25.53710 215.44309
   1 1   Cl 1S         -0.00129  -1.54172
   2        2S         -0.00381   1.91518
   3        3S          0.02806  -1.43909
   4        4S         -0.04452   0.96269
   5        5S          0.06018  -0.38125
   6        6S         -0.09909   0.18902
   7        7PX        -2.20469   0.00516
   8        7PY        -0.00000   0.00000
   9        7PZ         0.00000   0.00000
  10        8PX        -1.75962   0.00285
  11        8PY        -0.00000   0.00000
  12        8PZ         0.00000   0.00000
  13        9PX         2.36481  -0.01567
  14        9PY         0.00000  -0.00000
  15        9PZ        -0.00000   0.00000
  16       10PX        -1.15068   0.03905
  17       10PY        -0.00000   0.00000
  18       10PZ         0.00000  -0.00000
  19       11PX         0.35187  -0.04833
  20       11PY         0.00000  -0.00000
  21       11PZ        -0.00000   0.00000
  22 2   H  1S         -0.05394  -0.00630
  23        2S         -0.08022   0.02652
  24        3S          0.16690  -0.07359
  25        4PX         0.01603   0.02352
  26        4PY         0.00000  -0.00000
  27        4PZ        -0.00000   0.00000
     Density Matrix:
                           1         2         3         4         5
   1 1   Cl 1S          0.37149
   2        2S          0.62659   1.09374
   3        3S         -0.12603  -0.35484   0.59489
   4        4S         -0.18435  -0.49702   0.79462   1.09542
   5        5S          0.03770   0.10899  -0.23593  -0.47288   0.84777
   6        6S          0.04611   0.13207  -0.26498  -0.48176   0.71506
   7        7PX        -0.00195  -0.00559   0.01231   0.01893  -0.02640
   8        7PY         0.00000   0.00000   0.00000   0.00000  -0.00000
   9        7PZ         0.00000   0.00000  -0.00000   0.00000  -0.00000
  10        8PX         0.00071   0.00212  -0.00480  -0.00752   0.01041
  11        8PY         0.00000   0.00000   0.00000   0.00000  -0.00000
  12        8PZ         0.00000   0.00000   0.00000  -0.00000   0.00000
  13        9PX         0.00206   0.00580  -0.01202  -0.02120   0.02705
  14        9PY        -0.00000  -0.00000  -0.00000  -0.00000   0.00000
  15        9PZ        -0.00000  -0.00000  -0.00000  -0.00000   0.00000
  16       10PX         0.00571   0.01661  -0.03488  -0.06173   0.08366
  17       10PY         0.00000   0.00000   0.00000   0.00000  -0.00000
  18       10PZ         0.00000  -0.00000   0.00000  -0.00000   0.00000
  19       11PX         0.00236   0.00678  -0.01491  -0.02896   0.04803
  20       11PY        -0.00000  -0.00000  -0.00000  -0.00000  -0.00000
  21       11PZ         0.00000   0.00000   0.00000  -0.00000   0.00000
  22 2   H  1S          0.00269   0.00763  -0.01489  -0.02872   0.04937
  23        2S          0.00138   0.00384  -0.00639  -0.01302   0.02653
  24        3S         -0.00290  -0.00836   0.01604   0.02631  -0.02944
  25        4PX         0.00185   0.00531  -0.01039  -0.01887   0.02844
  26        4PY        -0.00000  -0.00000   0.00000   0.00000  -0.00000
  27        4PZ         0.00000   0.00000  -0.00000  -0.00000   0.00000
                           6         7         8         9        10
   6        6S          0.66542
   7        7PX        -0.08384   1.36780
   8        7PY        -0.00000   0.00000   1.40004
   9        7PZ         0.00000  -0.00000   0.00000   1.40004
  10        8PX         0.03145  -0.46553   0.00000  -0.00000   0.15850
  11        8PY        -0.00000   0.00000  -0.47853   0.00000  -0.00000
  12        8PZ        -0.00000   0.00000   0.00000  -0.47853   0.00000
  13        9PX         0.09811  -0.00131   0.00000   0.00000   0.00296
  14        9PY         0.00000  -0.00000  -0.03617   0.00000   0.00000
  15        9PZ         0.00000   0.00000  -0.00000  -0.03617  -0.00000
  16       10PX         0.19651  -0.14923  -0.00000   0.00000   0.05482
  17       10PY        -0.00000   0.00000  -0.26321  -0.00000  -0.00000
  18       10PZ        -0.00000   0.00000   0.00000  -0.26321  -0.00000
  19       11PX         0.09294  -0.06199  -0.00000  -0.00000   0.02281
  20       11PY         0.00000  -0.00000  -0.15827   0.00000   0.00000
  21       11PZ        -0.00000  -0.00000  -0.00000  -0.15827   0.00000
  22 2   H  1S         -0.01714   0.06679   0.00000  -0.00000  -0.02449
  23        2S         -0.09866   0.13844   0.00000   0.00000  -0.05085
  24        3S         -0.03978   0.01718  -0.00000  -0.00000  -0.00634
  25        4PX         0.00452   0.02149   0.00000   0.00000  -0.00788
  26        4PY         0.00000  -0.00000  -0.01309   0.00000   0.00000
  27        4PZ         0.00000   0.00000  -0.00000  -0.01309  -0.00000
                          11        12        13        14        15
  11        8PY         0.16370
  12        8PZ        -0.00000   0.16370
  13        9PX        -0.00000  -0.00000   0.10960
  14        9PY         0.01692  -0.00000   0.00000   0.14393
  15        9PZ        -0.00000   0.01692   0.00000  -0.00000   0.14393
  16       10PX         0.00000  -0.00000   0.17443   0.00000   0.00000
  17       10PY         0.09935   0.00000  -0.00000   0.30156  -0.00000
  18       10PZ        -0.00000   0.09935  -0.00000  -0.00000   0.30156
  19       11PX        -0.00000   0.00000   0.07364  -0.00000   0.00000
  20       11PY         0.05977  -0.00000   0.00000   0.18230  -0.00000
  21       11PZ         0.00000   0.05977  -0.00000   0.00000   0.18230
  22 2   H  1S         -0.00000   0.00000  -0.07971  -0.00000  -0.00000
  23        2S         -0.00000  -0.00000  -0.16607  -0.00000  -0.00000
  24        3S          0.00000   0.00000  -0.02028   0.00000   0.00000
  25        4PX        -0.00000  -0.00000  -0.02640  -0.00000   0.00000
  26        4PY         0.00495  -0.00000   0.00000   0.01518   0.00000
  27        4PZ         0.00000   0.00495   0.00000   0.00000   0.01518
                          16        17        18        19        20
  16       10PX         0.29516
  17       10PY        -0.00000   0.65707
  18       10PZ        -0.00000  -0.00000   0.65707
  19       11PX         0.12505  -0.00000   0.00000   0.05320
  20       11PY         0.00000   0.39711  -0.00000  -0.00000   0.24000
  21       11PZ        -0.00000   0.00000   0.39711   0.00000   0.00000
  22 2   H  1S         -0.13075  -0.00000   0.00000  -0.05412  -0.00000
  23        2S         -0.27578  -0.00000  -0.00000  -0.11531  -0.00000
  24        3S         -0.03523   0.00000   0.00000  -0.01518   0.00000
  25        4PX        -0.04267  -0.00000   0.00000  -0.01749  -0.00000
  26        4PY         0.00000   0.03306   0.00000   0.00000   0.01998
  27        4PZ         0.00000   0.00000   0.03306   0.00000   0.00000
                          21        22        23        24        25
  21       11PZ         0.24000
  22 2   H  1S          0.00000   0.06707
  23        2S         -0.00000   0.13328   0.27118
  24        3S          0.00000   0.01348   0.03032   0.00474
  25        4PX         0.00000   0.02321   0.04510   0.00408   0.00820
  26        4PY         0.00000  -0.00000  -0.00000   0.00000  -0.00000
  27        4PZ         0.01998  -0.00000  -0.00000   0.00000  -0.00000
                          26        27
  26        4PY         0.00166
  27        4PZ         0.00000   0.00166
    Full Mulliken population analysis:
                           1         2         3         4         5
   1 1   Cl 1S          0.37149
   2        2S          0.45399   1.09374
   3        3S         -0.02881  -0.20993   0.59489
   4        4S         -0.02160  -0.16995   0.67659   1.09542
   5        5S          0.00144   0.01302  -0.09297  -0.31762   0.84777
   6        6S          0.00076   0.00695  -0.04902  -0.16981   0.57240
   7        7PX         0.00000   0.00000   0.00000   0.00000   0.00000
   8        7PY         0.00000   0.00000   0.00000   0.00000   0.00000
   9        7PZ         0.00000   0.00000   0.00000   0.00000   0.00000
  10        8PX         0.00000   0.00000   0.00000   0.00000   0.00000
  11        8PY         0.00000   0.00000   0.00000   0.00000   0.00000
  12        8PZ         0.00000   0.00000   0.00000   0.00000   0.00000
  13        9PX         0.00000   0.00000   0.00000   0.00000   0.00000
  14        9PY         0.00000   0.00000   0.00000   0.00000   0.00000
  15        9PZ         0.00000   0.00000   0.00000   0.00000   0.00000
  16       10PX         0.00000   0.00000   0.00000   0.00000   0.00000
  17       10PY         0.00000   0.00000   0.00000   0.00000   0.00000
  18       10PZ         0.00000   0.00000   0.00000   0.00000   0.00000
  19       11PX         0.00000   0.00000   0.00000   0.00000   0.00000
  20       11PY         0.00000   0.00000   0.00000   0.00000   0.00000
  21       11PZ         0.00000   0.00000   0.00000   0.00000   0.00000
  22 2   H  1S          0.00000   0.00000  -0.00002  -0.00019   0.00425
  23        2S          0.00001   0.00005  -0.00028  -0.00117   0.00736
  24        3S         -0.00002  -0.00016   0.00107   0.00349  -0.01081
  25        4PX         0.00000   0.00004  -0.00034  -0.00149   0.00749
  26        4PY         0.00000   0.00000   0.00000   0.00000   0.00000
  27        4PZ         0.00000   0.00000   0.00000   0.00000   0.00000
                           6         7         8         9        10
   6        6S          0.66542
   7        7PX         0.00000   1.36780
   8        7PY         0.00000   0.00000   1.40004
   9        7PZ         0.00000   0.00000   0.00000   1.40004
  10        8PX         0.00000   0.24188   0.00000   0.00000   0.15850
  11        8PY         0.00000   0.00000   0.24863   0.00000   0.00000
  12        8PZ         0.00000   0.00000   0.00000   0.24863   0.00000
  13        9PX         0.00000  -0.00080   0.00000   0.00000   0.00043
  14        9PY         0.00000   0.00000  -0.02211   0.00000   0.00000
  15        9PZ         0.00000   0.00000   0.00000  -0.02211   0.00000
  16       10PX         0.00000  -0.04097   0.00000   0.00000   0.00696
  17       10PY         0.00000   0.00000  -0.07227   0.00000   0.00000
  18       10PZ         0.00000   0.00000   0.00000  -0.07227   0.00000
  19       11PX         0.00000  -0.00443   0.00000   0.00000   0.00092
  20       11PY         0.00000   0.00000  -0.01131   0.00000   0.00000
  21       11PZ         0.00000   0.00000   0.00000  -0.01131   0.00000
  22 2   H  1S         -0.00350  -0.00070   0.00000   0.00000   0.00023
  23        2S         -0.04612  -0.00791   0.00000   0.00000   0.00166
  24        3S         -0.02525  -0.00049   0.00000   0.00000   0.00010
  25        4PX         0.00110  -0.00183   0.00000   0.00000   0.00041
  26        4PY         0.00000   0.00000  -0.00018   0.00000   0.00000
  27        4PZ         0.00000   0.00000   0.00000  -0.00018   0.00000
                          11        12        13        14        15
  11        8PY         0.16370
  12        8PZ         0.00000   0.16370
  13        9PX         0.00000   0.00000   0.10960
  14        9PY         0.00245   0.00000   0.00000   0.14393
  15        9PZ         0.00000   0.00245   0.00000   0.00000   0.14393
  16       10PX         0.00000   0.00000   0.13011   0.00000   0.00000
  17       10PY         0.01262   0.00000   0.00000   0.22493   0.00000
  18       10PZ         0.00000   0.01262   0.00000   0.00000   0.22493
  19       11PX         0.00000   0.00000   0.01975   0.00000   0.00000
  20       11PY         0.00240   0.00000   0.00000   0.04889   0.00000
  21       11PZ         0.00000   0.00240   0.00000   0.00000   0.04889
  22 2   H  1S          0.00000   0.00000   0.00722   0.00000   0.00000
  23        2S          0.00000   0.00000   0.03595   0.00000   0.00000
  24        3S          0.00000   0.00000   0.00229   0.00000   0.00000
  25        4PX         0.00000   0.00000   0.00807   0.00000   0.00000
  26        4PY         0.00005   0.00000   0.00000   0.00112   0.00000
  27        4PZ         0.00000   0.00005   0.00000   0.00000   0.00112
                          16        17        18        19        20
  16       10PX         0.29516
  17       10PY         0.00000   0.65707
  18       10PZ         0.00000   0.00000   0.65707
  19       11PX         0.07907   0.00000   0.00000   0.05320
  20       11PY         0.00000   0.25110   0.00000   0.00000   0.24000
  21       11PZ         0.00000   0.00000   0.25110   0.00000   0.00000
  22 2   H  1S          0.03983   0.00000   0.00000   0.01715   0.00000
  23        2S          0.13382   0.00000   0.00000   0.06915   0.00000
  24        3S          0.01029   0.00000   0.00000   0.00865   0.00000
  25        4PX         0.01655   0.00000   0.00000   0.00050   0.00000
  26        4PY         0.00000   0.00637   0.00000   0.00000   0.00410
  27        4PZ         0.00000   0.00000   0.00637   0.00000   0.00000
                          21        22        23        24        25
  21       11PZ         0.24000
  22 2   H  1S          0.00000   0.06707
  23        2S          0.00000   0.09414   0.27118
  24        3S          0.00000   0.00504   0.02392   0.00474
  25        4PX         0.00000   0.00000   0.00000   0.00000   0.00820
  26        4PY         0.00000   0.00000   0.00000   0.00000   0.00000
  27        4PZ         0.00410   0.00000   0.00000   0.00000   0.00000
                          26        27
  26        4PY         0.00166
  27        4PZ         0.00000   0.00166
     Gross orbital populations:
                           1
   1 1   Cl 1S          0.77726
   2        2S          1.18775
   3        3S          0.89119
   4        4S          1.09366
   5        5S          1.03231
   6        6S          0.95294
   7        7PX         1.55255
   8        7PY         1.54281
   9        7PZ         1.54281
  10        8PX         0.41110
  11        8PY         0.42985
  12        8PZ         0.42985
  13        9PX         0.31261
  14        9PY         0.39921
  15        9PZ         0.39921
  16       10PX         0.67082
  17       10PY         1.07982
  18       10PZ         1.07982
  19       11PX         0.24396
  20       11PY         0.53520
  21       11PZ         0.53520
  22 2   H  1S          0.23052
  23        2S          0.58175
  24        3S          0.02286
  25        4PX         0.03871
  26        4PY         0.01312
  27        4PZ         0.01312
          Condensed to atoms (all electrons):
               1          2
     1  Cl  16.800543   0.299369
     2  H    0.299369   0.600718
 Mulliken charges:
               1
     1  Cl  -0.099913
     2  H    0.099913
 Sum of Mulliken charges =  -0.00000
 Mulliken charges with hydrogens summed into heavy atoms:
               1
     1  Cl  -0.000000

 Bonding Mulliken population analysis:
      Bonding Density Matrix:
                           1         2         3         4         5
   1 1   Cl 1S          0.00000
   2        2S          0.00000   0.00000
   3        3S          0.00000   0.00000   0.00000
   4        4S          0.00000   0.00000   0.00000   0.00000
   5        5S          0.00000   0.00000   0.00000   0.00000   0.00000
   6        6S          0.00000   0.00000   0.00000   0.00000   0.00000
   7        7PX         0.00000   0.00000   0.00000   0.00000   0.00000
   8        7PY         0.00000   0.00000   0.00000   0.00000   0.00000
   9        7PZ         0.00000   0.00000   0.00000   0.00000   0.00000
  10        8PX         0.00000   0.00000   0.00000   0.00000   0.00000
  11        8PY         0.00000   0.00000   0.00000   0.00000   0.00000
  12        8PZ         0.00000   0.00000   0.00000   0.00000   0.00000
  13        9PX         0.00000   0.00000   0.00000   0.00000   0.00000
  14        9PY         0.00000   0.00000   0.00000   0.00000   0.00000
  15        9PZ         0.00000   0.00000   0.00000   0.00000   0.00000
  16       10PX         0.00000   0.00000   0.00000   0.00000   0.00000
  17       10PY         0.00000   0.00000   0.00000   0.00000   0.00000
  18       10PZ         0.00000   0.00000   0.00000   0.00000   0.00000
  19       11PX         0.00000   0.00000   0.00000   0.00000   0.00000
  20       11PY         0.00000   0.00000   0.00000   0.00000   0.00000
  21       11PZ         0.00000   0.00000   0.00000   0.00000   0.00000
  22 2   H  1S          0.00269   0.00763  -0.01489  -0.02872   0.04937
  23        2S          0.00138   0.00384  -0.00639  -0.01302   0.02653
  24        3S         -0.00290  -0.00836   0.01604   0.02631  -0.02944
  25        4PX         0.00185   0.00531  -0.01039  -0.01887   0.02844
  26        4PY        -0.00000  -0.00000   0.00000   0.00000  -0.00000
  27        4PZ         0.00000   0.00000  -0.00000  -0.00000   0.00000
                           6         7         8         9        10
   6        6S          0.00000
   7        7PX         0.00000   0.00000
   8        7PY         0.00000   0.00000   0.00000
   9        7PZ         0.00000   0.00000   0.00000   0.00000
  10        8PX         0.00000   0.00000   0.00000   0.00000   0.00000
  11        8PY         0.00000   0.00000   0.00000   0.00000   0.00000
  12        8PZ         0.00000   0.00000   0.00000   0.00000   0.00000
  13        9PX         0.00000   0.00000   0.00000   0.00000   0.00000
  14        9PY         0.00000   0.00000   0.00000   0.00000   0.00000
  15        9PZ         0.00000   0.00000   0.00000   0.00000   0.00000
  16       10PX         0.00000   0.00000   0.00000   0.00000   0.00000
  17       10PY         0.00000   0.00000   0.00000   0.00000   0.00000
  18       10PZ         0.00000   0.00000   0.00000   0.00000   0.00000
  19       11PX         0.00000   0.00000   0.00000   0.00000   0.00000
  20       11PY         0.00000   0.00000   0.00000   0.00000   0.00000
  21       11PZ         0.00000   0.00000   0.00000   0.00000   0.00000
  22 2   H  1S         -0.01714   0.06679   0.00000  -0.00000  -0.02449
  23        2S         -0.09866   0.13844   0.00000   0.00000  -0.05085
  24        3S         -0.03978   0.01718  -0.00000  -0.00000  -0.00634
  25        4PX         0.00452   0.02149   0.00000   0.00000  -0.00788
  26        4PY         0.00000  -0.00000  -0.01309   0.00000   0.00000
  27        4PZ         0.00000   0.00000  -0.00000  -0.01309  -0.00000
                          11        12        13        14        15
  11        8PY         0.00000
  12        8PZ         0.00000   0.00000
  13        9PX         0.00000   0.00000   0.00000
  14        9PY         0.00000   0.00000   0.00000   0.00000
  15        9PZ         0.00000   0.00000   0.00000   0.00000   0.00000
  16       10PX         0.00000   0.00000   0.00000   0.00000   0.00000
  17       10PY         0.00000   0.00000   0.00000   0.00000   0.00000
  18       10PZ         0.00000   0.00000   0.00000   0.00000   0.00000
  19       11PX         0.00000   0.00000   0.00000   0.00000   0.00000
  20       11PY         0.00000   0.00000   0.00000   0.00000   0.00000
  21       11PZ         0.00000   0.00000   0.00000   0.00000   0.00000
  22 2   H  1S         -0.00000   0.00000  -0.07971  -0.00000  -0.00000
  23        2S         -0.00000  -0.00000  -0.16607  -0.00000  -0.00000
  24        3S          0.00000   0.00000  -0.02028   0.00000   0.00000
  25        4PX        -0.00000  -0.00000  -0.02640  -0.00000   0.00000
  26        4PY         0.00495  -0.00000   0.00000   0.01518   0.00000
  27        4PZ         0.00000   0.00495   0.00000   0.00000   0.01518
                          16        17        18        19        20
  16       10PX         0.00000
  17       10PY         0.00000   0.00000
  18       10PZ         0.00000   0.00000   0.00000
  19       11PX         0.00000   0.00000   0.00000   0.00000
  20       11PY         0.00000   0.00000   0.00000   0.00000   0.00000
  21       11PZ         0.00000   0.00000   0.00000   0.00000   0.00000
  22 2   H  1S         -0.13075  -0.00000   0.00000  -0.05412  -0.00000
  23        2S         -0.27578  -0.00000  -0.00000  -0.11531  -0.00000
  24        3S         -0.03523   0.00000   0.00000  -0.01518   0.00000
  25        4PX        -0.04267  -0.00000   0.00000  -0.01749  -0.00000
  26        4PY         0.00000   0.03306   0.00000   0.00000   0.01998
  27        4PZ         0.00000   0.00000   0.03306   0.00000   0.00000
                          21        22        23        24        25
  21       11PZ         0.00000
  22 2   H  1S          0.00000   0.00000
  23        2S         -0.00000   0.00000   0.00000
  24        3S          0.00000   0.00000   0.00000   0.00000
  25        4PX         0.00000   0.00000   0.00000   0.00000   0.00000
  26        4PY         0.00000   0.00000   0.00000   0.00000   0.00000
  27        4PZ         0.01998   0.00000   0.00000   0.00000   0.00000
                          26        27
  26        4PY         0.00000
  27        4PZ         0.00000   0.00000
    Full Bonding Mulliken population analysis:
                           1         2         3         4         5
   1 1   Cl 1S          0.00000
   2        2S          0.00000   0.00000
   3        3S          0.00000   0.00000   0.00000
   4        4S          0.00000   0.00000   0.00000   0.00000
   5        5S          0.00000   0.00000   0.00000   0.00000   0.00000
   6        6S          0.00000   0.00000   0.00000   0.00000   0.00000
   7        7PX         0.00000   0.00000   0.00000   0.00000   0.00000
   8        7PY         0.00000   0.00000   0.00000   0.00000   0.00000
   9        7PZ         0.00000   0.00000   0.00000   0.00000   0.00000
  10        8PX         0.00000   0.00000   0.00000   0.00000   0.00000
  11        8PY         0.00000   0.00000   0.00000   0.00000   0.00000
  12        8PZ         0.00000   0.00000   0.00000   0.00000   0.00000
  13        9PX         0.00000   0.00000   0.00000   0.00000   0.00000
  14        9PY         0.00000   0.00000   0.00000   0.00000   0.00000
  15        9PZ         0.00000   0.00000   0.00000   0.00000   0.00000
  16       10PX         0.00000   0.00000   0.00000   0.00000   0.00000
  17       10PY         0.00000   0.00000   0.00000   0.00000   0.00000
  18       10PZ         0.00000   0.00000   0.00000   0.00000   0.00000
  19       11PX         0.00000   0.00000   0.00000   0.00000   0.00000
  20       11PY         0.00000   0.00000   0.00000   0.00000   0.00000
  21       11PZ         0.00000   0.00000   0.00000   0.00000   0.00000
  22 2   H  1S          0.00000   0.00000  -0.00002  -0.00019   0.00425
  23        2S          0.00001   0.00005  -0.00028  -0.00117   0.00736
  24        3S         -0.00002  -0.00016   0.00107   0.00349  -0.01081
  25        4PX         0.00000   0.00004  -0.00034  -0.00149   0.00749
  26        4PY         0.00000   0.00000   0.00000   0.00000   0.00000
  27        4PZ         0.00000   0.00000   0.00000   0.00000   0.00000
                           6         7         8         9        10
   6        6S          0.00000
   7        7PX         0.00000   0.00000
   8        7PY         0.00000   0.00000   0.00000
   9        7PZ         0.00000   0.00000   0.00000   0.00000
  10        8PX         0.00000   0.00000   0.00000   0.00000   0.00000
  11        8PY         0.00000   0.00000   0.00000   0.00000   0.00000
  12        8PZ         0.00000   0.00000   0.00000   0.00000   0.00000
  13        9PX         0.00000   0.00000   0.00000   0.00000   0.00000
  14        9PY         0.00000   0.00000   0.00000   0.00000   0.00000
  15        9PZ         0.00000   0.00000   0.00000   0.00000   0.00000
  16       10PX         0.00000   0.00000   0.00000   0.00000   0.00000
  17       10PY         0.00000   0.00000   0.00000   0.00000   0.00000
  18       10PZ         0.00000   0.00000   0.00000   0.00000   0.00000
  19       11PX         0.00000   0.00000   0.00000   0.00000   0.00000
  20       11PY         0.00000   0.00000   0.00000   0.00000   0.00000
  21       11PZ         0.00000   0.00000   0.00000   0.00000   0.00000
  22 2   H  1S         -0.00350  -0.00070   0.00000   0.00000   0.00023
  23        2S         -0.04612  -0.00791   0.00000   0.00000   0.00166
  24        3S         -0.02525  -0.00049   0.00000   0.00000   0.00010
  25        4PX         0.00110  -0.00183   0.00000   0.00000   0.00041
  26        4PY         0.00000   0.00000  -0.00018   0.00000   0.00000
  27        4PZ         0.00000   0.00000   0.00000  -0.00018   0.00000
                          11        12        13        14        15
  11        8PY         0.00000
  12        8PZ         0.00000   0.00000
  13        9PX         0.00000   0.00000   0.00000
  14        9PY         0.00000   0.00000   0.00000   0.00000
  15        9PZ         0.00000   0.00000   0.00000   0.00000   0.00000
  16       10PX         0.00000   0.00000   0.00000   0.00000   0.00000
  17       10PY         0.00000   0.00000   0.00000   0.00000   0.00000
  18       10PZ         0.00000   0.00000   0.00000   0.00000   0.00000
  19       11PX         0.00000   0.00000   0.00000   0.00000   0.00000
  20       11PY         0.00000   0.00000   0.00000   0.00000   0.00000
  21       11PZ         0.00000   0.00000   0.00000   0.00000   0.00000
  22 2   H  1S          0.00000   0.00000   0.00722   0.00000   0.00000
  23        2S          0.00000   0.00000   0.03595   0.00000   0.00000
  24        3S          0.00000   0.00000   0.00229   0.00000   0.00000
  25        4PX         0.00000   0.00000   0.00807   0.00000   0.00000
  26        4PY         0.00005   0.00000   0.00000   0.00112   0.00000
  27        4PZ         0.00000   0.00005   0.00000   0.00000   0.00112
                          16        17        18        19        20
  16       10PX         0.00000
  17       10PY         0.00000   0.00000
  18       10PZ         0.00000   0.00000   0.00000
  19       11PX         0.00000   0.00000   0.00000   0.00000
  20       11PY         0.00000   0.00000   0.00000   0.00000   0.00000
  21       11PZ         0.00000   0.00000   0.00000   0.00000   0.00000
  22 2   H  1S          0.03983   0.00000   0.00000   0.01715   0.00000
  23        2S          0.13382   0.00000   0.00000   0.06915   0.00000
  24        3S          0.01029   0.00000   0.00000   0.00865   0.00000
  25        4PX         0.01655   0.00000   0.00000   0.00050   0.00000
  26        4PY         0.00000   0.00637   0.00000   0.00000   0.00410
  27        4PZ         0.00000   0.00000   0.00637   0.00000   0.00000
                          21        22        23        24        25
  21       11PZ         0.00000
  22 2   H  1S          0.00000   0.00000
  23        2S          0.00000   0.00000   0.00000
  24        3S          0.00000   0.00000   0.00000   0.00000
  25        4PX         0.00000   0.00000   0.00000   0.00000   0.00000
  26        4PY         0.00000   0.00000   0.00000   0.00000   0.00000
  27        4PZ         0.00410   0.00000   0.00000   0.00000   0.00000
                          26        27
  26        4PY         0.00000
  27        4PZ         0.00000   0.00000
     Bonding Gross orbital populations:
                           1
   1 1   Cl 1S         -0.00001
   2        2S         -0.00007
   3        3S          0.00044
   4        4S          0.00064
   5        5S          0.00828
   6        6S         -0.07377
   7        7PX        -0.01093
   8        7PY        -0.00018
   9        7PZ        -0.00018
  10        8PX         0.00241
  11        8PY         0.00005
  12        8PZ         0.00005
  13        9PX         0.05352
  14        9PY         0.00112
  15        9PZ         0.00112
  16       10PX         0.20049
  17       10PY         0.00637
  18       10PZ         0.00637
  19       11PX         0.09545
  20       11PY         0.00410
  21       11PZ         0.00410
  22 2   H  1S          0.06427
  23        2S          0.19251
  24        3S         -0.01084
  25        4PX         0.03051
  26        4PY         0.01146
  27        4PZ         0.01146
          Bonding Condensed to atoms (all electrons):
               1          2
     1  Cl   0.000000   0.299369
     2  H    0.299369   0.000000
 Bonding Mulliken charges:
               1
     1  Cl  16.700631
     2  H    0.700631
 Sum of Bonding Mulliken charges =  17.40126
 Bonding Mulliken charges with hydrogens summed into heavy atoms:
               1
     1  Cl  17.401262
 APT charges:
               1
     1  Cl  -0.235419
     2  H    0.235419
 Sum of APT charges =  -0.00000
 APT charges with hydrogens summed into heavy atoms:
               1
     1  Cl  -0.000000
 Electronic spatial extent (au):  <R**2>=             34.7864
 Charge=             -0.0000 electrons
 Dipole moment (field-independent basis, Debye):
    X=             -1.6518    Y=             -0.0000    Z=             -0.0000  Tot=              1.6518
 Quadrupole moment (field-independent basis, Debye-Ang):
   XX=            -10.5868   YY=            -14.2867   ZZ=            -14.2867
   XY=              0.0000   XZ=              0.0000   YZ=             -0.0000
 Traceless Quadrupole moment (field-independent basis, Debye-Ang):
   XX=              2.4666   YY=             -1.2333   ZZ=             -1.2333
   XY=              0.0000   XZ=              0.0000   YZ=             -0.0000
 Octapole moment (field-independent basis, Debye-Ang**2):
  XXX=             -2.0479  YYY=             -0.0000  ZZZ=             -0.0000  XYY=              0.0044
  XXY=              0.0000  XXZ=             -0.0000  XZZ=              0.0044  YZZ=             -0.0000
  YYZ=             -0.0000  XYZ=              0.0000
 Hexadecapole moment (field-independent basis, Debye-Ang**3):
 XXXX=            -14.8872 YYYY=            -17.9797 ZZZZ=            -17.9797 XXXY=              0.0000
 XXXZ=              0.0000 YYYX=              0.0000 YYYZ=             -0.0000 ZZZX=              0.0000
 ZZZY=             -0.0000 XXYY=             -6.2029 XXZZ=             -6.2029 YYZZ=             -5.9932
 XXYZ=             -0.0000 YYXZ=              0.0000 ZZXY=              0.0000
 N-N= 6.963466465629D+00 E-N=-1.109366197773D+03  KE= 4.597355775701D+02
 Orbital energies and kinetic energies (alpha):
                                 1                 2
   1         O              -101.567851        137.005470
   2         O                -9.483203         21.495686
   3         O                -7.247735         20.532118
   4         O                -7.237477         20.550746
   5         O                -7.237477         20.550746
   6         O                -0.860220          3.000761
   7         O                -0.477349          2.088494
   8         O                -0.340956          2.321884
   9         O                -0.340956          2.321884
  10         V                -0.010931          1.234996
  11         V                 0.195522          0.684906
  12         V                 0.275918          1.419305
  13         V                 0.275918          1.419305
  14         V                 0.292939          1.763276
  15         V                 0.725103          3.559947
  16         V                 1.211312          2.003208
  17         V                 1.211312          2.003208
  18         V                 1.524842          2.720599
  19         V                 2.000976          6.424387
  20         V                 2.094505          8.391754
  21         V                 2.094505          8.391754
  22         V                 2.301134          6.024217
  23         V                 9.490697         37.100534
  24         V                25.354515         43.033953
  25         V                25.354515         43.033953
  26         V                25.537102         43.486698
  27         V               215.443086        552.784163
 Total kinetic energy from orbitals= 4.597355775701D+02
  Exact polarizability:  13.024  -0.000   4.716  -0.000   0.000   4.716
 Approx polarizability:  17.074  -0.000   4.640  -0.000  -0.000   4.640
 Calling FoFJK, ICntrl=    100127 FMM=F ISym2X=0 I1Cent= 0 IOpClX= 0 NMat=1 NMatS=1 NMatT=0.
 Full mass-weighted force constant matrix:
 Low frequencies ---   -0.0050   -0.0036   -0.0036   56.4044   56.4044 2867.5624
 Diagonal vibrational polarizability:
        0.0985288       0.0000000       0.0000000
 Diagonal vibrational hyperpolarizability:
       -6.0355023      -0.0000000      -0.0000000
 Harmonic frequencies (cm**-1), IR intensities (KM/Mole), Raman scattering
 activities (A**4/AMU), depolarization ratios for plane and unpolarized
 incident light, reduced masses (AMU), force constants (mDyne/A),
 and normal coordinates:
                           1
                           A
       Frequencies ---  2867.5624
    Reduced masses ---     1.0360
   Force constants ---     5.0193
    IR Intensities ---    30.1062
  Raman Activities ---   107.1584
    Depol. (Plane) ---     0.5477
    Depol. (Unpol) ---     0.7078
 Coord Atom Element:
   1     1    17         -0.02881
   2     1    17         -0.00000
   3     1    17         -0.00000
   1     2     1          0.99958
   2     2     1         -0.00000
   3     2     1         -0.00000
 Harmonic frequencies (cm**-1), IR intensities (KM/Mole), Raman scattering
 activities (A**4/AMU), depolarization ratios for plane and unpolarized
 incident light, reduced masses (AMU), force constants (mDyne/A),
 and normal coordinates:
                      1
                      A
 Frequencies --   2867.5624
 Red. masses --      1.0360
 Frc consts  --      5.0193
 IR Inten    --     30.1062
 Raman Activ --    107.1584
 Depolar (P) --      0.5477
 Depolar (U) --      0.7078
  Atom  AN      X      Y      Z
     1  17    -0.03  -0.00  -0.00
     2   1     1.00  -0.00  -0.00

 -------------------
 - Thermochemistry -
 -------------------
 Temperature   298.150 Kelvin.  Pressure   1.00000 Atm.
 Atom     1 has atomic number 17 and mass  34.96885
 Atom     2 has atomic number  1 and mass   1.00783
 Molecular mass:    35.97668 amu.
 Principal axes and moments of inertia in atomic units:
                           1         2         3
     Eigenvalues --     0.00000   5.83838   5.83838
           X            1.00000  -0.00000   0.00000
           Y            0.00000   1.00000   0.00000
           Z            0.00000   0.00000   1.00000
 This molecule is a prolate symmetric top.
 Rotational symmetry number  1.
 Rotational temperature (Kelvin)     14.83527
 Rotational constant (GHZ):         309.116792
 Zero-point vibrational energy      17151.8 (Joules/Mol)
                                    4.09939 (Kcal/Mol)
 Vibrational temperatures:   4125.78
          (Kelvin)
 
 Zero-point correction=                           0.006533 (Hartree/Particle)
 Thermal correction to Energy=                    0.008893
 Thermal correction to Enthalpy=                  0.009837
 Thermal correction to Gibbs Free Energy=        -0.011363
 Sum of electronic and zero-point Energies=           -460.818995
 Sum of electronic and thermal Energies=              -460.816635
 Sum of electronic and thermal Enthalpies=            -460.815691
 Sum of electronic and thermal Free Energies=         -460.836891
 
                     E (Thermal)             CV                S
                      KCal/Mol        Cal/Mol-Kelvin    Cal/Mol-Kelvin
 Total                    5.581              4.968             44.621
 Electronic               0.000              0.000              0.000
 Translational            0.889              2.981             36.671
 Rotational               0.592              1.987              7.950
 Vibrational              4.099              0.000              0.000
                       Q            Log10(Q)             Ln(Q)
 Total Bot       0.168560D+06          5.226754         12.035046
 Total V=0       0.170461D+09          8.231625         18.954018
 Vib (Bot)       0.988847D-03         -3.004871         -6.918971
 Vib (V=0)       0.100000D+01          0.000000          0.000001
 Electronic      0.100000D+01          0.000000          0.000000
 Translational   0.848175D+07          6.928485         15.953427
 Rotational      0.200974D+02          1.303139          3.000589
 -------------------------------------------------------------------
 Center     Atomic                   Forces (Hartrees/Bohr)
 Number     Number              X              Y              Z
 -------------------------------------------------------------------
      1       17          -0.000000011    0.000000000   -0.000000000
      2        1           0.000000011   -0.000000000    0.000000000
 -------------------------------------------------------------------
 Cartesian Forces:  Max     0.000000011 RMS     0.000000007
 FormGI is forming the generalized inverse of G from B-inverse, IUseBI=4.

 GradGradGradGradGradGradGradGradGradGradGradGradGradGradGradGradGradGrad
 Berny optimization.
 Internal  Forces:  Max     0.000000011 RMS     0.000000011
 Search for a local minimum.
 Step number   1 out of a maximum of    2
 All quantities printed in internal units (Hartrees-Bohrs-Radians)
 Second derivative matrix not updated -- analytic derivatives used.
 The second derivative matrix:
                          R1
           R1           0.30483
 ITU=  0
     Eigenvalues ---    0.30483
 Angle between quadratic step and forces=  90.00 degrees.
 Linear search not attempted -- first point.
 Iteration  1 RMS(Cart)=  0.00000003 RMS(Int)=  0.00000000
 Variable       Old X    -DE/DX   Delta X   Delta X   Delta X     New X
                                 (Linear)    (Quad)   (Total)
    R1        2.44131  -0.00000   0.00000  -0.00000  -0.00000   2.44131
         Item               Value     Threshold  Converged?
 Maximum Force            0.000000     0.000015     YES
 RMS     Force            0.000000     0.000010     YES
 Maximum Displacement     0.000000     0.000060     YES
 RMS     Displacement     0.000000     0.000040     YES
 Predicted change in Energy=-2.139278D-16
 Optimization completed.
    -- Stationary point found.
                           ----------------------------
                           !   Optimized Parameters   !
                           ! (Angstroms and Degrees)  !
 --------------------------                            --------------------------
 ! Name  Definition              Value          Derivative Info.                !
 --------------------------------------------------------------------------------
 ! R1    R(1,2)                  1.2919         -DE/DX =    0.0                 !
 --------------------------------------------------------------------------------
 GradGradGradGradGradGradGradGradGradGradGradGradGradGradGradGradGradGrad


 ----------------------------------------------------------------------

 Electric dipole moment (input orientation):
 (Debye = 10**-18 statcoulomb cm , SI units = C m)
                  (au)            (Debye)         (10**-30 SI)
   Tot        0.649865D+00      0.165179D+01      0.550979D+01
   x         -0.649865D+00     -0.165179D+01     -0.550979D+01
   y          0.000000D+00      0.000000D+00      0.000000D+00
   z          0.000000D+00      0.000000D+00      0.000000D+00

 Dipole polarizability, Alpha (input orientation).
 (esu units = cm**3 , SI units = C**2 m**2 J**-1)
 Alpha(0;0):
               (au)            (10**-24 esu)      (10**-40 SI)
   iso        0.748494D+01      0.110915D+01      0.123410D+01
   aniso      0.830827D+01      0.123116D+01      0.136985D+01
   xx         0.130238D+02      0.192993D+01      0.214733D+01
   yx         0.000000D+00      0.000000D+00      0.000000D+00
   yy         0.471552D+01      0.698768D+00      0.777485D+00
   zx         0.000000D+00      0.000000D+00      0.000000D+00
   zy         0.000000D+00      0.000000D+00      0.000000D+00
   zz         0.471552D+01      0.698768D+00      0.777485D+00

 First dipole hyperpolarizability, Beta (input orientation).
 ||, _|_  parallel and perpendicular components, (z) with respect to z axis,
 vector components x,y,z.  Values do not include the 1/n! factor of 1/2.
 (esu units = statvolt**-1 cm**4 , SI units = C**3 m**3 J**-2)
 Beta(0;0,0):
               (au)            (10**-30 esu)      (10**-50 SI)
   || (z)     0.000000D+00      0.000000D+00      0.000000D+00
   _|_(z)     0.000000D+00      0.000000D+00      0.000000D+00
   x         -0.180007D+03     -0.155512D+01     -0.577167D+00
   y          0.000000D+00      0.000000D+00      0.000000D+00
   z          0.000000D+00      0.000000D+00      0.000000D+00
   ||         0.360014D+02      0.311024D+00      0.115433D+00
   xxx       -0.383648D+02     -0.331442D+00     -0.123011D+00
   xxy        0.000000D+00      0.000000D+00      0.000000D+00
   yxy       -0.108187D+02     -0.934656D-01     -0.346888D-01
   yyy        0.000000D+00      0.000000D+00      0.000000D+00
   xxz        0.000000D+00      0.000000D+00      0.000000D+00
   yxz        0.000000D+00      0.000000D+00      0.000000D+00
   yyz        0.000000D+00      0.000000D+00      0.000000D+00
   zxz       -0.108187D+02     -0.934656D-01     -0.346888D-01
   zyz        0.000000D+00      0.000000D+00      0.000000D+00
   zzz        0.000000D+00      0.000000D+00      0.000000D+00

 ----------------------------------------------------------------------

 Dipole orientation:
    17         -0.00000000         -0.00000000         -0.08682074
     1          0.00000000          0.00000000          2.35449209

 Electric dipole moment (dipole orientation):
 (Debye = 10**-18 statcoulomb cm , SI units = C m)
                  (au)            (Debye)         (10**-30 SI)
   Tot        0.649865D+00      0.165179D+01      0.550979D+01
   x          0.000000D+00      0.000000D+00      0.000000D+00
   y          0.000000D+00      0.000000D+00      0.000000D+00
   z          0.649865D+00      0.165179D+01      0.550979D+01

 Dipole polarizability, Alpha (dipole orientation).
 (esu units = cm**3 , SI units = C**2 m**2 J**-1)
 Alpha(0;0):
               (au)            (10**-24 esu)      (10**-40 SI)
   iso        0.748494D+01      0.110915D+01      0.123410D+01
   aniso      0.830827D+01      0.123116D+01      0.136985D+01
   xx         0.471552D+01      0.698768D+00      0.777485D+00
   yx         0.000000D+00      0.000000D+00      0.000000D+00
   yy         0.471552D+01      0.698768D+00      0.777485D+00
   zx         0.000000D+00      0.000000D+00      0.000000D+00
   zy         0.000000D+00      0.000000D+00      0.000000D+00
   zz         0.130238D+02      0.192993D+01      0.214733D+01

 First dipole hyperpolarizability, Beta (dipole orientation).
 ||, _|_  parallel and perpendicular components, (z) with respect to z axis,
 vector components x,y,z.  Values do not include the 1/n! factor of 1/2.
 (esu units = statvolt**-1 cm**4 , SI units = C**3 m**3 J**-2)
 Beta(0;0,0):
               (au)            (10**-30 esu)      (10**-50 SI)
   || (z)     0.360014D+02      0.311024D+00      0.115433D+00
   _|_(z)     0.120005D+02      0.103675D+00      0.384778D-01
   x          0.000000D+00      0.000000D+00      0.000000D+00
   y          0.000000D+00      0.000000D+00      0.000000D+00
   z          0.180007D+03      0.155512D+01      0.577167D+00
   ||         0.360014D+02      0.311024D+00      0.115433D+00
   xxx        0.000000D+00      0.000000D+00      0.000000D+00
   xxy        0.000000D+00      0.000000D+00      0.000000D+00
   yxy        0.000000D+00      0.000000D+00      0.000000D+00
   yyy        0.000000D+00      0.000000D+00      0.000000D+00
   xxz        0.108187D+02      0.934656D-01      0.346888D-01
   yxz        0.000000D+00      0.000000D+00      0.000000D+00
   yyz        0.108187D+02      0.934656D-01      0.346888D-01
   zxz        0.000000D+00      0.000000D+00      0.000000D+00
   zyz        0.000000D+00      0.000000D+00      0.000000D+00
   zzz        0.383648D+02      0.331442D+00      0.123011D+00

 ----------------------------------------------------------------------

 Test job not archived.
 1\1\GINC-NODE7\Freq\RB3LYP\6-311G(3d2f,3p2d)\Cl1H1\SD\23-Dec-2025\0\\#
 N Geom=AllCheck Guess=TCheck SCRF=Check Test GenChk RB3LYP/6-311G(3d2f
 ,3p2d) Freq\\HCl B3LYP/6-311g(3d2f,3p2d)\\0,1\Cl,0.0459435563,0.,0.\H,
 -1.2459435563,0.,0.\\Version=ES64L-G16RevA.03\HF=-460.825528\RMSD=4.89
 0e-10\RMSF=6.594e-09\ZeroPoint=0.0065328\Thermal=0.0088933\Dipole=-0.6
 498655,0.,0.\DipoleDeriv=-0.1739302,0.,0.,0.,-0.2661628,0.,0.,0.,-0.26
 61628,0.1739302,0.,0.,0.,0.2661628,0.,0.,0.,0.2661628\Polar=13.0237885
 ,0.,4.7155226,0.,0.,4.7155226\PolarDeriv=10.6543058,0.,-1.9120224,0.,0
 .,-1.9120224,0.,3.4031069,0.,0.,0.,0.,0.,0.,0.,3.4031069,0.,0.,-10.654
 3058,0.,1.9120224,0.,0.,1.9120224,0.,-3.4031069,0.,0.,0.,0.,0.,0.,0.,-
 3.4031069,0.,0.\HyperPolar=-38.3647928,0.,-10.81875,0.,0.,0.,0.,-10.81
 875,0.,0.\Quadrupole=1.833844,-0.916922,-0.916922,0.,0.,0.\PG=C*V [C*(
 H1Cl1)]\NImag=0\\0.30483348,0.,0.00011794,0.,0.,0.00011794,-0.30483348
 ,0.,0.,0.30483348,0.,-0.00011794,0.,0.,0.00011794,0.,0.,-0.00011794,0.
 ,0.,0.00011794\\0.00000001,0.,0.,-0.00000001,0.,0.\\\@


 NO SCIENCE HAS EVER MADE MORE RAPID PROGRESS IN A
 SHORTER TIME THAN CHEMISTRY.
   -- MARTIN HEINRICH KLOPROTH, 1791
 (FIRST PROFESSOR OF CHEMISTRY AT THE UNIVERSITY OF BERLIN)
 Job cpu time:       0 days  0 hours  0 minutes 42.3 seconds.
 Elapsed time:       0 days  0 hours  0 minutes  2.2 seconds.
 File lengths (MBytes):  RWF=      6 Int=      0 D2E=      0 Chk=      2 Scr=      1
 Normal termination of Gaussian 16 at Tue Dec 23 16:25:52 2025.
