%NProcLinda=1
%nprocshared=24
%mem=50GB
%chk=H3SiOPOCl2_B3LYP_6-311g.chk
# opt=(tight,maxcycles=300) freq=(raman,hpmodes) b3lyp/6-311g(3d2f,3p2d)
nosymm pop=(full,bonding) density int=finegrid iop(6/80=1) scf=tight

H3SiOPOCl2 B3LYP_6-311g

0 1
 Si                -1.62873800   -0.53325700   -1.34027900
 H                 -0.81047800   -1.51759400   -0.61549400
 H                 -1.07260500   -0.22687800   -2.66726400
 H                 -3.03960700   -0.94312300   -1.41836400
 O                 -1.58495200    0.92748400   -0.43146100
 P                 -1.54407500    2.29117200    0.41697500
 O                 -0.76087100    2.35372300    1.76169900
 Cl                -3.72432300    2.78339900    0.60449700
 Cl                -0.85370600    3.77371500   -1.11558400

