 Entering Gaussian System, Link 0=/opt/gaussian/g16.a03/g16/g16
 Input=H3SiOPOCl2_B3LYP_6-311g.gjf
 Output=Job.24055.log
 Initial command:
 /opt/gaussian/g16.a03/g16/l1.exe "/scr0//sd/24055/Gau-12595.inp" -scrdir="/scr0//sd/24055/"
 Default is to use a total of  24 processors:
                               24 via shared-memory
                                1 via Linda
 Entering Link 1 = /opt/gaussian/g16.a03/g16/l1.exe PID=     12597.
  
 Copyright (c) 1988,1990,1992,1993,1995,1998,2003,2009,2016,
            Gaussian, Inc.  All Rights Reserved.
  
 This is part of the Gaussian(R) 16 program.  It is based on
 the Gaussian(R) 09 system (copyright 2009, Gaussian, Inc.),
 the Gaussian(R) 03 system (copyright 2003, Gaussian, Inc.),
 the Gaussian(R) 98 system (copyright 1998, Gaussian, Inc.),
 the Gaussian(R) 94 system (copyright 1995, Gaussian, Inc.),
 the Gaussian 92(TM) system (copyright 1992, Gaussian, Inc.),
 the Gaussian 90(TM) system (copyright 1990, Gaussian, Inc.),
 the Gaussian 88(TM) system (copyright 1988, Gaussian, Inc.),
 the Gaussian 86(TM) system (copyright 1986, Carnegie Mellon
 University), and the Gaussian 82(TM) system (copyright 1983,
 Carnegie Mellon University). Gaussian is a federally registered
 trademark of Gaussian, Inc.
  
 This software contains proprietary and confidential information,
 including trade secrets, belonging to Gaussian, Inc.
  
 This software is provided under written license and may be
 used, copied, transmitted, or stored only in accord with that
 written license.
  
 The following legend is applicable only to US Government
 contracts under FAR:
  
                    RESTRICTED RIGHTS LEGEND
  
 Use, reproduction and disclosure by the US Government is
 subject to restrictions as set forth in subparagraphs (a)
 and (c) of the Commercial Computer Software - Restricted
 Rights clause in FAR 52.227-19.
  
 Gaussian, Inc.
 340 Quinnipiac St., Bldg. 40, Wallingford CT 06492
  
  
 ---------------------------------------------------------------
 Warning -- This program may not be used in any manner that
 competes with the business of Gaussian, Inc. or will provide
 assistance to any competitor of Gaussian, Inc.  The licensee
 of this program is prohibited from giving any competitor of
 Gaussian, Inc. access to this program.  By using this program,
 the user acknowledges that Gaussian, Inc. is engaged in the
 business of creating and licensing software in the field of
 computational chemistry and represents and warrants to the
 licensee that it is not a competitor of Gaussian, Inc. and that
 it will not use this program in any manner prohibited above.
 ---------------------------------------------------------------
  

 Cite this work as:
 Gaussian 16, Revision A.03,
 M. J. Frisch, G. W. Trucks, H. B. Schlegel, G. E. Scuseria, 
 M. A. Robb, J. R. Cheeseman, G. Scalmani, V. Barone, 
 G. A. Petersson, H. Nakatsuji, X. Li, M. Caricato, A. V. Marenich, 
 J. Bloino, B. G. Janesko, R. Gomperts, B. Mennucci, H. P. Hratchian, 
 J. V. Ortiz, A. F. Izmaylov, J. L. Sonnenberg, D. Williams-Young, 
 F. Ding, F. Lipparini, F. Egidi, J. Goings, B. Peng, A. Petrone, 
 T. Henderson, D. Ranasinghe, V. G. Zakrzewski, J. Gao, N. Rega, 
 G. Zheng, W. Liang, M. Hada, M. Ehara, K. Toyota, R. Fukuda, 
 J. Hasegawa, M. Ishida, T. Nakajima, Y. Honda, O. Kitao, H. Nakai, 
 T. Vreven, K. Throssell, J. A. Montgomery, Jr., J. E. Peralta, 
 F. Ogliaro, M. J. Bearpark, J. J. Heyd, E. N. Brothers, K. N. Kudin, 
 V. N. Staroverov, T. A. Keith, R. Kobayashi, J. Normand, 
 K. Raghavachari, A. P. Rendell, J. C. Burant, S. S. Iyengar, 
 J. Tomasi, M. Cossi, J. M. Millam, M. Klene, C. Adamo, R. Cammi, 
 J. W. Ochterski, R. L. Martin, K. Morokuma, O. Farkas, 
 J. B. Foresman, and D. J. Fox, Gaussian, Inc., Wallingford CT, 2016.
 
 ******************************************
 Gaussian 16:  ES64L-G16RevA.03 25-Dec-2016
                23-Dec-2025 
 ******************************************
 %NProcLinda=1
 Will use up to    1 processors via Linda.
 %NProcShared=24
 Will use up to   24 processors via shared memory.
 %mem=50GB
 %chk=H3SiOPOCl2_B3LYP_6-311g.chk
 Default route: MaxDisk=1200GB
 ----------------------------------------------------------------------
 # B3LYP/6-311g(3d2f,3p2d) SCF=Tight opt=(tight,maxcycles=300) freq=(ra
 man,hpmodes) nosymm int=finegrid density pop=(full,bonding) iop(6/80=1
 )
 ----------------------------------------------------------------------
 1/6=300,7=10,18=20,19=15,26=3,38=1/1,3;
 2/9=110,12=2,15=1,17=6,18=5,40=1/2;
 3/5=4,6=6,7=707,11=2,25=1,30=1,71=1,74=-5,75=-4/1,2,3;
 4//1;
 5/5=2,32=2,38=5/2;
 6/7=3,22=-1,27=20,28=1,80=1/1;
 7/30=1/1,2,3,16;
 1/6=300,7=10,18=20,19=15,26=3/3(2);
 2/9=110,15=1/2;
 99//99;
 2/9=110,15=1/2;
 3/5=4,6=6,7=707,11=2,25=1,30=1,71=1,74=-5,75=-4/1,2,3;
 4/5=5,16=3,69=1/1;
 5/5=2,32=2,38=5/2;
 7/30=1/1,2,3,16;
 1/6=300,7=10,18=20,19=15,26=3/3(-5);
 2/9=110,15=1/2;
 6/7=3,19=2,22=-1,27=20,28=1,80=1/1;
 99/9=1/99;
 -----------------------
 H3SiOPOCl2 B3LYP_6-311g
 -----------------------
 Symbolic Z-matrix:
 Charge =  0 Multiplicity = 1
 Si                   -1.61386  -0.32599  -1.20025 
 H                    -1.12388  -1.71192  -1.20025 
 H                    -1.12385   0.36697  -2.4005 
 H                    -3.08386  -0.32597  -1.20025 
 O                    -1.00385   0.53668   0.29394 
 P                    -1.57089   2.14992   0.29313 
 O                    -1.00086   2.95517   1.68982 
 Cl                   -3.61089   2.15366   0.29103 
 Cl                   -0.88741   3.11011  -1.37195 
 

 GradGradGradGradGradGradGradGradGradGradGradGradGradGradGradGradGradGrad
 Berny optimization.
 Initialization pass.
                           ----------------------------
                           !    Initial Parameters    !
                           ! (Angstroms and Degrees)  !
 --------------------------                            --------------------------
 ! Name  Definition              Value          Derivative Info.                !
 --------------------------------------------------------------------------------
 ! R1    R(1,2)                  1.47           estimate D2E/DX2                !
 ! R2    R(1,3)                  1.47           estimate D2E/DX2                !
 ! R3    R(1,4)                  1.47           estimate D2E/DX2                !
 ! R4    R(1,5)                  1.83           estimate D2E/DX2                !
 ! R5    R(5,6)                  1.71           estimate D2E/DX2                !
 ! R6    R(6,7)                  1.71           estimate D2E/DX2                !
 ! R7    R(6,8)                  2.04           estimate D2E/DX2                !
 ! R8    R(6,9)                  2.04           estimate D2E/DX2                !
 ! A1    A(2,1,3)              109.4712         estimate D2E/DX2                !
 ! A2    A(2,1,4)              109.4712         estimate D2E/DX2                !
 ! A3    A(2,1,5)              109.4712         estimate D2E/DX2                !
 ! A4    A(3,1,4)              109.4712         estimate D2E/DX2                !
 ! A5    A(3,1,5)              109.4713         estimate D2E/DX2                !
 ! A6    A(4,1,5)              109.4712         estimate D2E/DX2                !
 ! A7    A(1,5,6)              109.5            estimate D2E/DX2                !
 ! A8    A(5,6,7)              109.4712         estimate D2E/DX2                !
 ! A9    A(5,6,8)              109.4712         estimate D2E/DX2                !
 ! A10   A(5,6,9)              109.4712         estimate D2E/DX2                !
 ! A11   A(7,6,8)              109.4713         estimate D2E/DX2                !
 ! A12   A(7,6,9)              109.4712         estimate D2E/DX2                !
 ! A13   A(8,6,9)              109.4712         estimate D2E/DX2                !
 ! D1    D(2,1,5,6)            179.8898         estimate D2E/DX2                !
 ! D2    D(3,1,5,6)             59.8898         estimate D2E/DX2                !
 ! D3    D(4,1,5,6)            -60.1102         estimate D2E/DX2                !
 ! D4    D(1,5,6,7)            179.9836         estimate D2E/DX2                !
 ! D5    D(1,5,6,8)             59.9836         estimate D2E/DX2                !
 ! D6    D(1,5,6,9)            -60.0164         estimate D2E/DX2                !
 --------------------------------------------------------------------------------
 Trust Radius=3.00D-01 FncErr=1.00D-07 GrdErr=1.00D-06 EigMax=2.50D+02 EigMin=1.00D-04
 Number of steps in this run=    100 maximum allowed number of steps=    100.
 GradGradGradGradGradGradGradGradGradGradGradGradGradGradGradGradGradGrad

                          Input orientation:                          
 ---------------------------------------------------------------------
 Center     Atomic      Atomic             Coordinates (Angstroms)
 Number     Number       Type             X           Y           Z
 ---------------------------------------------------------------------
      1         14           0       -1.613862   -0.325986   -1.200250
      2          1           0       -1.123879   -1.711921   -1.200250
      3          1           0       -1.123853    0.366972   -2.400500
      4          1           0       -3.083862   -0.325968   -1.200250
      5          8           0       -1.003851    0.536677    0.293939
      6         15           0       -1.570893    2.149923    0.293134
      7          8           0       -1.000857    2.955167    1.689822
      8         17           0       -3.610889    2.153663    0.291026
      9         17           0       -0.887411    3.110113   -1.371945
 ---------------------------------------------------------------------
                    Distance matrix (angstroms):
                    1          2          3          4          5
     1  Si   0.000000
     2  H    1.470000   0.000000
     3  H    1.470000   2.400500   0.000000
     4  H    1.470000   2.400500   2.400500   0.000000
     5  O    1.830000   2.702443   2.702444   2.702443   0.000000
     6  P    2.891741   4.164595   3.261046   3.263327   1.710000
     7  O    4.415231   5.490844   4.841965   4.843271   2.792418
     8  Cl   3.515776   4.832377   4.076999   2.941128   3.067784
     9  Cl   3.516245   4.830880   2.939158   4.081730   3.067784
                    6          7          8          9
     6  P    0.000000
     7  O    1.710000   0.000000
     8  Cl   2.040000   3.067785   0.000000
     9  Cl   2.040000   3.067784   3.331306   0.000000
 Symmetry turned off by external request.
 Stoichiometry    Cl2H3O2PSi
 Framework group  C1[X(Cl2H3O2PSi)]
 Deg. of freedom    21
 Full point group                 C1      NOp   1
 Rotational constants (GHZ):           1.6459192           1.2873997           1.0542213
 Standard basis: 6-311G(3d2f,3p2d) (5D, 7F)
   128 basis functions,   242 primitive gaussians,   128 cartesian basis functions
    41 alpha electrons       41 beta electrons
       nuclear repulsion energy       558.3436106921 Hartrees.



 Warning!  P  atom    6 may be hypervalent but has no d functions.



 NAtoms=    9 NActive=    9 NUniq=    9 SFac= 1.00D+00 NAtFMM=   60 NAOKFM=F Big=F
 Integral buffers will be    131072 words long.
 Raffenetti 2 integral format.
 Two-electron integral symmetry is turned off.
 One-electron integrals computed using PRISM.
 NBasis=   128 RedAO= T EigKep=  9.51D-03  NBF=   128
 NBsUse=   128 1.00D-06 EigRej= -1.00D+00 NBFU=   128
 ExpMin= 6.54D-02 ExpMax= 1.06D+05 ExpMxC= 3.62D+03 IAcc=2 IRadAn=         4 AccDes= 0.00D+00
 Harris functional with IExCor=  402 and IRadAn=       4 diagonalized for initial guess.
 HarFok:  IExCor=  402 AccDes= 0.00D+00 IRadAn=         4 IDoV= 1 UseB2=F ITyADJ=14
 ICtDFT=  3500011 ScaDFX=  1.000000  1.000000  1.000000  1.000000
 FoFCou: FMM=F IPFlag=           0 FMFlag=      100000 FMFlg1=           0
         NFxFlg=           0 DoJE=T BraDBF=F KetDBF=T FulRan=T
         wScrn=  0.000000 ICntrl=       500 IOpCl=  0 I1Cent=   200000004 NGrid=           0
         NMat0=    1 NMatS0=      1 NMatT0=    0 NMatD0=    1 NMtDS0=    0 NMtDT0=    0
 Symmetry not used in FoFCou.
 Keep R1 ints in memory in canonical form, NReq=56933861.
 Requested convergence on RMS density matrix=1.00D-08 within 128 cycles.
 Requested convergence on MAX density matrix=1.00D-06.
 Requested convergence on             energy=1.00D-06.
 No special actions if energy rises.
 Integral accuracy reduced to 1.0D-05 until final iterations.
 Initial convergence to 1.0D-05 achieved.  Increase integral accuracy.
 SCF Done:  E(RB3LYP) =  -1703.48238933     A.U. after   16 cycles
            NFock= 16  Conv=0.78D-08     -V/T= 2.0020

 **********************************************************************

            Population analysis using the SCF density.

 **********************************************************************

 Alpha  occ. eigenvalues -- -101.61916-101.61913 -77.28865 -66.18833 -19.21418
 Alpha  occ. eigenvalues --  -19.12704  -9.53459  -9.53457  -7.30017  -7.30015
 Alpha  occ. eigenvalues --   -7.28803  -7.28801  -7.28785  -7.28783  -6.77941
 Alpha  occ. eigenvalues --   -5.36268  -4.94101  -4.93987  -4.93779  -3.72331
 Alpha  occ. eigenvalues --   -3.71908  -3.71883  -1.08498  -0.96970  -0.91659
 Alpha  occ. eigenvalues --   -0.90476  -0.66060  -0.60664  -0.52063  -0.51717
 Alpha  occ. eigenvalues --   -0.47306  -0.43924  -0.41829  -0.40132  -0.39230
 Alpha  occ. eigenvalues --   -0.38670  -0.37870  -0.37175  -0.37046  -0.29419
 Alpha  occ. eigenvalues --   -0.29201
 Alpha virt. eigenvalues --   -0.13943  -0.05998  -0.02743  -0.00931   0.01428
 Alpha virt. eigenvalues --    0.02288   0.02959   0.05438   0.10498   0.11098
 Alpha virt. eigenvalues --    0.15280   0.15459   0.17866   0.20525   0.22940
 Alpha virt. eigenvalues --    0.24425   0.25286   0.27920   0.30076   0.33209
 Alpha virt. eigenvalues --    0.34202   0.34632   0.37217   0.43420   0.49439
 Alpha virt. eigenvalues --    0.77434   0.79242   0.81507   0.83158   0.83709
 Alpha virt. eigenvalues --    0.91655   0.92257   0.93451   0.97551   0.99828
 Alpha virt. eigenvalues --    1.00060   1.21045   1.21395   1.21841   1.24054
 Alpha virt. eigenvalues --    1.25408   1.36263   1.37215   1.41597   1.42036
 Alpha virt. eigenvalues --    1.49853   1.61034   1.63166   1.66562   1.72234
 Alpha virt. eigenvalues --    2.02313   2.07806   2.08567   2.10067   2.12826
 Alpha virt. eigenvalues --    2.18233   2.33087   2.33381   2.47068   4.75201
 Alpha virt. eigenvalues --    4.75462   4.76488   4.83557   4.86280   4.89500
 Alpha virt. eigenvalues --    5.44686   6.55131   9.48677   9.51458  11.20500
 Alpha virt. eigenvalues --   11.24695  11.27195  13.62180  13.63718  13.66247
 Alpha virt. eigenvalues --   25.35244  25.40425  25.44088  25.50550  25.51706
 Alpha virt. eigenvalues --   25.78669  49.68120  49.76283 140.88257 162.63827
 Alpha virt. eigenvalues --  215.45173 215.48282
     Molecular Orbital Coefficients:
                           1         2         3         4         5
                           O         O         O         O         O
     Eigenvalues --  -101.61916-101.61913 -77.28865 -66.18833 -19.21418
   1 1   Si 1S         -0.00000  -0.00000   0.00000   0.41757   0.00000
   2        2S          0.00000   0.00000  -0.00000   0.64678  -0.00001
   3        3S         -0.00000  -0.00000   0.00000   0.01404   0.00007
   4        4S          0.00001   0.00001  -0.00000  -0.00491  -0.00022
   5        5S         -0.00001  -0.00001  -0.00008   0.00239   0.00015
   6        6S         -0.00007  -0.00007   0.00026  -0.00194   0.00131
   7        7PX         0.00000  -0.00000   0.00000   0.00002   0.00000
   8        7PY         0.00000   0.00000  -0.00000   0.00004   0.00001
   9        7PZ         0.00000   0.00000   0.00000   0.00006   0.00001
  10        8PX        -0.00000   0.00000  -0.00000   0.00000  -0.00001
  11        8PY        -0.00000  -0.00000   0.00000  -0.00001  -0.00004
  12        8PZ        -0.00000  -0.00000  -0.00000  -0.00000  -0.00004
  13        9PX         0.00001  -0.00001   0.00001  -0.00001   0.00004
  14        9PY         0.00002   0.00001  -0.00003  -0.00000   0.00012
  15        9PZ         0.00000   0.00002   0.00000  -0.00002   0.00013
  16       10PX        -0.00002   0.00002  -0.00003   0.00000   0.00019
  17       10PY        -0.00006  -0.00005   0.00012   0.00000   0.00021
  18       10PZ        -0.00001  -0.00004   0.00002   0.00001   0.00043
  19       11PX         0.00003  -0.00005  -0.00005   0.00011   0.00010
  20       11PY         0.00009   0.00007   0.00025  -0.00011  -0.00005
  21       11PZ         0.00001   0.00006   0.00006   0.00011   0.00013
  22 2   H  1S          0.00001   0.00001   0.00001   0.00003   0.00005
  23        2S         -0.00003  -0.00003  -0.00001  -0.00021  -0.00017
  24        3S          0.00007   0.00007   0.00017   0.00030  -0.00037
  25        4PX         0.00000  -0.00000  -0.00001   0.00005  -0.00002
  26        4PY        -0.00000  -0.00000   0.00001  -0.00013  -0.00010
  27        4PZ        -0.00000  -0.00000  -0.00001   0.00000  -0.00009
  28 3   H  1S         -0.00000   0.00001   0.00002   0.00004   0.00008
  29        2S          0.00001  -0.00003  -0.00008  -0.00025  -0.00030
  30        3S         -0.00002   0.00007  -0.00000   0.00051  -0.00010
  31        4PX         0.00000  -0.00000   0.00001   0.00004  -0.00001
  32        4PY        -0.00000  -0.00000  -0.00001   0.00007  -0.00002
  33        4PZ         0.00000   0.00000  -0.00001  -0.00011  -0.00014
  34 4   H  1S          0.00001  -0.00000   0.00002   0.00004   0.00008
  35        2S         -0.00003   0.00001  -0.00008  -0.00025  -0.00030
  36        3S          0.00007  -0.00002  -0.00000   0.00051  -0.00009
  37        4PX         0.00000   0.00000  -0.00001  -0.00014  -0.00010
  38        4PY         0.00000  -0.00000  -0.00002   0.00001  -0.00005
  39        4PZ         0.00000   0.00000   0.00000   0.00000  -0.00008
  40 5   O  1S          0.00000   0.00000   0.00000   0.00000   0.55131
  41        2S         -0.00000  -0.00000   0.00000  -0.00001   0.46993
  42        2PX         0.00000  -0.00000  -0.00000   0.00000  -0.00100
  43        2PY        -0.00000  -0.00000   0.00002  -0.00001   0.00084
  44        2PZ        -0.00000   0.00000   0.00001  -0.00001  -0.00116
  45        3S          0.00002   0.00002   0.00002   0.00007   0.01249
  46        3PX        -0.00001   0.00000   0.00001  -0.00001   0.00015
  47        3PY         0.00000   0.00001  -0.00005   0.00003  -0.00009
  48        3PZ         0.00000  -0.00001  -0.00002  -0.00001   0.00019
  49        4S         -0.00007  -0.00007   0.00002  -0.00010  -0.00666
  50        4PX         0.00004  -0.00001   0.00003   0.00009   0.00049
  51        4PY        -0.00004  -0.00005   0.00002  -0.00003  -0.00061
  52        4PZ        -0.00001   0.00001   0.00006   0.00014   0.00045
  53 6   P  1S         -0.00000  -0.00000   0.41907   0.00000   0.00000
  54        2S          0.00000   0.00000   0.64598  -0.00000   0.00000
  55        3S         -0.00002  -0.00002   0.01408   0.00000  -0.00001
  56        4S          0.00004   0.00004  -0.00427  -0.00000  -0.00001
  57        5S         -0.00013  -0.00013   0.00168  -0.00004  -0.00046
  58        6S          0.00045   0.00045  -0.00128   0.00018   0.00294
  59        7PX        -0.00000   0.00000  -0.00003   0.00000   0.00000
  60        7PY         0.00000   0.00000  -0.00003   0.00000  -0.00001
  61        7PZ        -0.00000  -0.00000  -0.00006   0.00000  -0.00000
  62        8PX         0.00001  -0.00000   0.00001  -0.00000  -0.00002
  63        8PY        -0.00000  -0.00000   0.00001  -0.00000   0.00006
  64        8PZ         0.00000   0.00001   0.00002  -0.00001   0.00001
  65        9PX        -0.00003   0.00001  -0.00002   0.00001   0.00006
  66        9PY         0.00000   0.00001   0.00000   0.00002  -0.00019
  67        9PZ        -0.00000  -0.00002  -0.00003   0.00003  -0.00002
  68       10PX         0.00000   0.00002   0.00004  -0.00001   0.00024
  69       10PY        -0.00000   0.00000  -0.00004  -0.00011  -0.00047
  70       10PZ         0.00003   0.00001   0.00004  -0.00007   0.00012
  71       11PX        -0.00022   0.00007   0.00009  -0.00004   0.00031
  72       11PY        -0.00001   0.00010   0.00013  -0.00011  -0.00105
  73       11PZ        -0.00001  -0.00019   0.00023  -0.00012  -0.00009
  74 7   O  1S          0.00000   0.00000   0.00000  -0.00000   0.00001
  75        2S         -0.00000  -0.00000  -0.00000   0.00000  -0.00001
  76        2PX         0.00000  -0.00000  -0.00001  -0.00000  -0.00001
  77        2PY         0.00000  -0.00000  -0.00001   0.00001   0.00003
  78        2PZ         0.00000   0.00000  -0.00002   0.00000   0.00001
  79        3S          0.00002   0.00002   0.00002  -0.00002   0.00021
  80        3PX        -0.00002   0.00000   0.00002   0.00000   0.00003
  81        3PY        -0.00000   0.00000   0.00003  -0.00002  -0.00013
  82        3PZ        -0.00000  -0.00002   0.00004  -0.00001  -0.00003
  83        4S         -0.00007  -0.00007  -0.00000   0.00008  -0.00065
  84        4PX         0.00005   0.00000  -0.00000  -0.00001  -0.00001
  85        4PY         0.00002   0.00000  -0.00001   0.00003   0.00049
  86        4PZ         0.00004   0.00007  -0.00001  -0.00000   0.00027
  87 8   Cl 1S          0.41161  -0.00024  -0.00000  -0.00000   0.00000
  88        2S          0.65408  -0.00039   0.00000   0.00000  -0.00000
  89        3S          0.01497  -0.00001  -0.00002  -0.00001   0.00004
  90        4S         -0.00391  -0.00000   0.00005   0.00001  -0.00009
  91        5S          0.00138   0.00002  -0.00010  -0.00002   0.00029
  92        6S         -0.00086  -0.00006   0.00027  -0.00001  -0.00064
  93        7PX         0.00010  -0.00001  -0.00002  -0.00001  -0.00005
  94        7PY        -0.00001   0.00000  -0.00000  -0.00000   0.00001
  95        7PZ        -0.00001  -0.00000  -0.00000  -0.00000  -0.00000
  96        8PX         0.00001  -0.00000  -0.00001  -0.00000  -0.00002
  97        8PY        -0.00000   0.00000  -0.00000  -0.00000   0.00000
  98        8PZ        -0.00000  -0.00000  -0.00000  -0.00000  -0.00000
  99        9PX        -0.00008   0.00002   0.00006   0.00002   0.00017
 100        9PY         0.00001  -0.00000   0.00001   0.00001  -0.00002
 101        9PZ         0.00001   0.00001   0.00001   0.00001   0.00001
 102       10PX         0.00004  -0.00004  -0.00004  -0.00004  -0.00029
 103       10PY        -0.00001   0.00000  -0.00001  -0.00000   0.00000
 104       10PZ        -0.00001  -0.00001  -0.00002  -0.00001  -0.00002
 105       11PX        -0.00019  -0.00002   0.00013   0.00004  -0.00024
 106       11PY         0.00002  -0.00001   0.00002   0.00001   0.00034
 107       11PZ         0.00001   0.00005  -0.00001   0.00003   0.00003
 108 9   Cl 1S          0.00024   0.41161  -0.00000  -0.00000   0.00000
 109        2S          0.00039   0.65408   0.00000   0.00000  -0.00000
 110        3S          0.00001   0.01497  -0.00002  -0.00001   0.00004
 111        4S         -0.00001  -0.00391   0.00005   0.00001  -0.00009
 112        5S          0.00002   0.00138  -0.00010  -0.00002   0.00029
 113        6S         -0.00007  -0.00086   0.00027  -0.00001  -0.00064
 114        7PX         0.00000  -0.00004   0.00001   0.00000   0.00001
 115        7PY         0.00000  -0.00006   0.00001  -0.00000   0.00003
 116        7PZ        -0.00001   0.00007  -0.00002  -0.00001  -0.00004
 117        8PX         0.00000  -0.00000   0.00000   0.00000   0.00001
 118        8PY         0.00000  -0.00001   0.00000  -0.00000   0.00001
 119        8PZ        -0.00000   0.00001  -0.00001  -0.00000  -0.00002
 120        9PX        -0.00000   0.00003  -0.00001  -0.00000  -0.00004
 121        9PY        -0.00001   0.00005  -0.00002  -0.00000  -0.00009
 122        9PZ         0.00002  -0.00006   0.00005   0.00002   0.00013
 123       10PX         0.00001  -0.00002   0.00001   0.00001   0.00009
 124       10PY         0.00002  -0.00003   0.00000   0.00001   0.00013
 125       10PZ        -0.00004   0.00003  -0.00004  -0.00004  -0.00025
 126       11PX         0.00005   0.00006  -0.00006   0.00000  -0.00005
 127       11PY         0.00001   0.00011  -0.00005  -0.00000   0.00041
 128       11PZ         0.00001  -0.00015   0.00010   0.00005  -0.00008
                           6         7         8         9        10
                           O         O         O         O         O
     Eigenvalues --   -19.12704  -9.53459  -9.53457  -7.30017  -7.30015
   1 1   Si 1S         -0.00000  -0.00000  -0.00000  -0.00000  -0.00000
   2        2S          0.00000   0.00001   0.00001  -0.00000  -0.00000
   3        3S         -0.00004  -0.00006  -0.00006   0.00000   0.00000
   4        4S          0.00009   0.00013   0.00013  -0.00000  -0.00000
   5        5S         -0.00036  -0.00013  -0.00012   0.00002   0.00002
   6        6S          0.00101  -0.00155  -0.00149  -0.00004  -0.00004
   7        7PX        -0.00000   0.00001  -0.00001   0.00000  -0.00000
   8        7PY        -0.00001   0.00001   0.00000   0.00000   0.00000
   9        7PZ        -0.00000   0.00000   0.00001  -0.00000   0.00000
  10        8PX         0.00000  -0.00005   0.00004  -0.00000   0.00000
  11        8PY         0.00003  -0.00006  -0.00002  -0.00000   0.00000
  12        8PZ         0.00002  -0.00001  -0.00006   0.00000  -0.00000
  13        9PX         0.00001   0.00020  -0.00020   0.00001  -0.00001
  14        9PY        -0.00014   0.00037   0.00022   0.00001   0.00000
  15        9PZ        -0.00007   0.00007   0.00030  -0.00000   0.00001
  16       10PX        -0.00007  -0.00029   0.00049  -0.00001   0.00003
  17       10PY         0.00036  -0.00131  -0.00098  -0.00003  -0.00001
  18       10PZ         0.00008  -0.00029  -0.00074   0.00002  -0.00001
  19       11PX        -0.00012   0.00064  -0.00097  -0.00001   0.00001
  20       11PY         0.00028   0.00204   0.00138  -0.00004  -0.00003
  21       11PZ        -0.00003   0.00028   0.00124  -0.00002  -0.00002
  22 2   H  1S          0.00000   0.00010   0.00009  -0.00000  -0.00000
  23        2S          0.00005  -0.00060  -0.00057   0.00000   0.00000
  24        3S          0.00011   0.00168   0.00160  -0.00003  -0.00003
  25        4PX        -0.00001   0.00002   0.00000   0.00000  -0.00000
  26        4PY         0.00003  -0.00004  -0.00004  -0.00000  -0.00000
  27        4PZ        -0.00000  -0.00001  -0.00000  -0.00000   0.00000
  28 3   H  1S          0.00001  -0.00002   0.00011  -0.00000  -0.00001
  29        2S         -0.00004   0.00027  -0.00071   0.00002   0.00002
  30        3S         -0.00014  -0.00039   0.00161  -0.00000  -0.00001
  31        4PX         0.00002   0.00003  -0.00003  -0.00000  -0.00000
  32        4PY        -0.00001  -0.00004  -0.00001  -0.00000   0.00001
  33        4PZ        -0.00000   0.00004   0.00008   0.00000   0.00000
  34 4   H  1S          0.00001   0.00011  -0.00002  -0.00001  -0.00000
  35        2S         -0.00004  -0.00069   0.00031   0.00002   0.00002
  36        3S         -0.00014   0.00159  -0.00046  -0.00001  -0.00000
  37        4PX        -0.00001   0.00008   0.00004   0.00000   0.00000
  38        4PY        -0.00002   0.00003  -0.00003   0.00001  -0.00000
  39        4PZ         0.00001   0.00002   0.00003   0.00000  -0.00000
  40 5   O  1S         -0.00001  -0.00000  -0.00000  -0.00000  -0.00000
  41        2S         -0.00003  -0.00003  -0.00003  -0.00000  -0.00000
  42        2PX        -0.00001   0.00004  -0.00002  -0.00000   0.00000
  43        2PY        -0.00002  -0.00001  -0.00003  -0.00000  -0.00000
  44        2PZ        -0.00002  -0.00001   0.00002  -0.00000  -0.00000
  45        3S          0.00020   0.00034   0.00032   0.00003   0.00003
  46        3PX         0.00002  -0.00016   0.00008  -0.00000  -0.00000
  47        3PY         0.00008   0.00006   0.00014   0.00001   0.00001
  48        3PZ         0.00007   0.00006  -0.00009   0.00000   0.00000
  49        4S         -0.00065  -0.00145  -0.00138  -0.00009  -0.00010
  50        4PX         0.00003   0.00078  -0.00015   0.00004   0.00000
  51        4PY        -0.00046  -0.00084  -0.00112  -0.00004  -0.00005
  52        4PZ        -0.00022  -0.00030   0.00025  -0.00000   0.00002
  53 6   P  1S          0.00000  -0.00000  -0.00000  -0.00001  -0.00001
  54        2S          0.00000   0.00003   0.00003  -0.00003  -0.00003
  55        3S          0.00001  -0.00028  -0.00027   0.00006   0.00006
  56        4S         -0.00007   0.00064   0.00061   0.00001   0.00002
  57        5S         -0.00027  -0.00278  -0.00265   0.00001   0.00001
  58        6S          0.00261   0.00969   0.00923   0.00042   0.00043
  59        7PX         0.00000  -0.00001   0.00000  -0.00000   0.00000
  60        7PY         0.00001   0.00000   0.00000   0.00000   0.00000
  61        7PZ         0.00001  -0.00000  -0.00001   0.00000  -0.00000
  62        8PX        -0.00002   0.00008  -0.00002  -0.00002   0.00001
  63        8PY        -0.00004  -0.00000  -0.00004  -0.00000   0.00001
  64        8PZ        -0.00006   0.00001   0.00007  -0.00000  -0.00002
  65        9PX         0.00006  -0.00039   0.00009   0.00004  -0.00001
  66        9PY         0.00016   0.00002   0.00018   0.00001  -0.00001
  67        9PZ         0.00018  -0.00007  -0.00035   0.00001   0.00004
  68       10PX         0.00024  -0.00023   0.00053  -0.00030   0.00010
  69       10PY        -0.00005  -0.00008   0.00018  -0.00003   0.00011
  70       10PZ         0.00036   0.00050   0.00002  -0.00001  -0.00025
  71       11PX         0.00055  -0.00472   0.00158   0.00004  -0.00005
  72       11PY         0.00139  -0.00004   0.00210  -0.00002  -0.00006
  73       11PZ         0.00170  -0.00032  -0.00401  -0.00006  -0.00000
  74 7   O  1S          0.55133  -0.00000  -0.00000  -0.00000  -0.00000
  75        2S          0.47000  -0.00003  -0.00003  -0.00000  -0.00000
  76        2PX        -0.00051   0.00007  -0.00001  -0.00000   0.00000
  77        2PY        -0.00071   0.00000  -0.00003   0.00000   0.00000
  78        2PZ        -0.00125   0.00002   0.00006   0.00000   0.00000
  79        3S          0.01212   0.00034   0.00032   0.00002   0.00002
  80        3PX         0.00006  -0.00027   0.00005   0.00000  -0.00000
  81        3PY         0.00011  -0.00002   0.00009  -0.00000  -0.00001
  82        3PZ         0.00015  -0.00008  -0.00027  -0.00001  -0.00000
  83        4S         -0.00619  -0.00147  -0.00140  -0.00006  -0.00006
  84        4PX         0.00032   0.00110  -0.00000   0.00002   0.00000
  85        4PY         0.00040   0.00042   0.00003   0.00001   0.00001
  86        4PZ         0.00076   0.00075   0.00136   0.00002   0.00003
  87 8   Cl 1S          0.00000  -0.12175   0.00295   0.00159   0.00000
  88        2S         -0.00000  -0.32680   0.00790   0.00434   0.00001
  89        3S          0.00003   0.49705  -0.01200  -0.00727  -0.00001
  90        4S         -0.00007   0.61113  -0.01487  -0.00747  -0.00003
  91        5S          0.00023   0.05687  -0.00096   0.00056   0.00005
  92        6S         -0.00046  -0.02044  -0.00085  -0.00032  -0.00012
  93        7PX        -0.00004   0.00950  -0.00033   0.80214   0.00196
  94        7PY         0.00000  -0.00071   0.00002  -0.02539  -0.00006
  95        7PZ        -0.00000  -0.00119   0.00001  -0.05370  -0.00013
  96        8PX        -0.00002  -0.00325   0.00004  -0.27174  -0.00067
  97        8PY         0.00000   0.00024  -0.00000   0.00860   0.00002
  98        8PZ        -0.00000   0.00040  -0.00002   0.01819   0.00005
  99        9PX         0.00013   0.00217   0.00033   0.05348   0.00015
 100        9PY        -0.00001  -0.00011  -0.00001  -0.00169   0.00000
 101        9PZ         0.00001  -0.00022   0.00007  -0.00357  -0.00003
 102       10PX        -0.00023  -0.00063  -0.00082  -0.00115  -0.00004
 103       10PY         0.00004  -0.00005   0.00002   0.00004  -0.00001
 104       10PZ         0.00001   0.00002  -0.00014   0.00007   0.00003
 105       11PX        -0.00023  -0.00367  -0.00031  -0.00007  -0.00002
 106       11PY        -0.00032   0.00037  -0.00023  -0.00000   0.00001
 107       11PZ        -0.00044   0.00015   0.00097   0.00001  -0.00001
 108 9   Cl 1S          0.00000  -0.00295  -0.12175  -0.00000   0.00159
 109        2S         -0.00000  -0.00791  -0.32680  -0.00001   0.00434
 110        3S          0.00003   0.01206   0.49705   0.00002  -0.00726
 111        4S         -0.00007   0.01471   0.61114   0.00001  -0.00747
 112        5S          0.00023   0.00179   0.05685   0.00005   0.00056
 113        6S         -0.00046  -0.00184  -0.02037  -0.00012  -0.00032
 114        7PX         0.00001  -0.00008  -0.00383   0.00075  -0.30205
 115        7PY         0.00002  -0.00008  -0.00539   0.00102  -0.41311
 116        7PZ        -0.00003   0.00007   0.00695  -0.00153   0.62054
 117        8PX         0.00000   0.00004   0.00131  -0.00025   0.10232
 118        8PY         0.00001   0.00006   0.00184  -0.00034   0.13995
 119        8PZ        -0.00002  -0.00009  -0.00239   0.00051  -0.21022
 120        9PX        -0.00003  -0.00009  -0.00086   0.00002  -0.02013
 121        9PY        -0.00007  -0.00020  -0.00117   0.00006  -0.02754
 122        9PZ         0.00011   0.00038   0.00161  -0.00009   0.04137
 123       10PX         0.00007   0.00016   0.00024   0.00004   0.00043
 124       10PY         0.00014   0.00037   0.00024   0.00002   0.00059
 125       10PZ        -0.00017  -0.00075  -0.00048  -0.00002  -0.00089
 126       11PX        -0.00013   0.00105   0.00113  -0.00001   0.00004
 127       11PY        -0.00029   0.00033   0.00206   0.00001   0.00004
 128       11PZ        -0.00050   0.00003  -0.00282  -0.00002  -0.00005
                          11        12        13        14        15
                           O         O         O         O         O
     Eigenvalues --    -7.28803  -7.28801  -7.28785  -7.28783  -6.77941
   1 1   Si 1S          0.00000   0.00000   0.00000   0.00000   0.00000
   2        2S         -0.00000  -0.00000   0.00000   0.00000  -0.00000
   3        3S          0.00000   0.00000  -0.00000  -0.00000   0.00001
   4        4S         -0.00001  -0.00001   0.00000   0.00000  -0.00002
   5        5S          0.00001   0.00001  -0.00002  -0.00002  -0.00144
   6        6S          0.00009   0.00009   0.00007   0.00007   0.00444
   7        7PX        -0.00000   0.00000  -0.00000   0.00000   0.00000
   8        7PY         0.00000   0.00000  -0.00000  -0.00000  -0.00000
   9        7PZ         0.00000  -0.00000  -0.00000  -0.00000   0.00000
  10        8PX         0.00000  -0.00000   0.00000  -0.00000  -0.00002
  11        8PY        -0.00000  -0.00000   0.00000   0.00000   0.00001
  12        8PZ        -0.00000   0.00000   0.00000   0.00000  -0.00003
  13        9PX        -0.00000   0.00000   0.00000   0.00001   0.00019
  14        9PY         0.00000   0.00000  -0.00002  -0.00001  -0.00038
  15        9PZ         0.00000  -0.00000  -0.00000  -0.00000   0.00010
  16       10PX        -0.00000  -0.00000  -0.00002  -0.00002  -0.00054
  17       10PY         0.00002   0.00002   0.00004   0.00004   0.00178
  18       10PZ         0.00001   0.00001  -0.00001  -0.00001   0.00014
  19       11PX         0.00002   0.00002   0.00001   0.00004  -0.00099
  20       11PY        -0.00006  -0.00006  -0.00007  -0.00006   0.00494
  21       11PZ        -0.00000  -0.00001   0.00001  -0.00001   0.00123
  22 2   H  1S         -0.00000  -0.00000  -0.00000  -0.00000   0.00012
  23        2S          0.00000   0.00000   0.00003   0.00003  -0.00034
  24        3S         -0.00006  -0.00006  -0.00007  -0.00007   0.00342
  25        4PX         0.00000   0.00000   0.00000  -0.00000  -0.00012
  26        4PY        -0.00000  -0.00000   0.00000   0.00000   0.00012
  27        4PZ         0.00000  -0.00000   0.00000   0.00000  -0.00013
  28 3   H  1S          0.00000  -0.00000  -0.00000  -0.00000   0.00024
  29        2S         -0.00000   0.00001  -0.00001   0.00001  -0.00134
  30        3S         -0.00001  -0.00005   0.00003  -0.00005   0.00008
  31        4PX        -0.00000   0.00000   0.00000   0.00000   0.00021
  32        4PY         0.00000   0.00000   0.00000  -0.00000  -0.00010
  33        4PZ        -0.00000  -0.00000   0.00000  -0.00000  -0.00016
  34 4   H  1S         -0.00000   0.00000  -0.00000  -0.00000   0.00024
  35        2S          0.00001  -0.00000   0.00001  -0.00001  -0.00134
  36        3S         -0.00005  -0.00001  -0.00005   0.00003   0.00008
  37        4PX        -0.00000  -0.00000  -0.00000   0.00000  -0.00015
  38        4PY        -0.00000   0.00000  -0.00000   0.00000  -0.00023
  39        4PZ        -0.00000  -0.00000  -0.00000   0.00000   0.00007
  40 5   O  1S          0.00000   0.00000   0.00000   0.00000  -0.00002
  41        2S          0.00000   0.00000   0.00000   0.00000   0.00001
  42        2PX         0.00000   0.00000   0.00000  -0.00000  -0.00006
  43        2PY        -0.00000  -0.00000  -0.00000  -0.00000   0.00028
  44        2PZ         0.00000   0.00000  -0.00000  -0.00000   0.00007
  45        3S         -0.00002  -0.00002  -0.00000  -0.00000   0.00008
  46        3PX        -0.00001  -0.00001  -0.00000   0.00002   0.00008
  47        3PY         0.00000   0.00000   0.00000   0.00001  -0.00074
  48        3PZ        -0.00001  -0.00001   0.00002   0.00001  -0.00030
  49        4S          0.00009   0.00009   0.00001   0.00001   0.00065
  50        4PX        -0.00000   0.00001   0.00001  -0.00004   0.00045
  51        4PY         0.00004   0.00004  -0.00000  -0.00002   0.00031
  52        4PZ         0.00003   0.00003  -0.00005  -0.00002   0.00092
  53 6   P  1S         -0.00000  -0.00000  -0.00000  -0.00000  -0.12007
  54        2S         -0.00000  -0.00000  -0.00000  -0.00000  -0.31231
  55        3S         -0.00000  -0.00000   0.00001   0.00001   0.51138
  56        4S          0.00001   0.00001  -0.00000  -0.00000   0.59697
  57        5S         -0.00001  -0.00001   0.00000   0.00000   0.05637
  58        6S          0.00002   0.00001   0.00007   0.00007  -0.02621
  59        7PX         0.00000   0.00000  -0.00000  -0.00000  -0.00130
  60        7PY        -0.00000  -0.00000  -0.00000  -0.00000  -0.00125
  61        7PZ         0.00000   0.00000  -0.00000  -0.00000  -0.00284
  62        8PX        -0.00000  -0.00001  -0.00000   0.00001  -0.00256
  63        8PY         0.00001   0.00001   0.00000   0.00001  -0.00258
  64        8PZ        -0.00000   0.00000   0.00001   0.00000  -0.00567
  65        9PX         0.00001   0.00003   0.00001  -0.00004  -0.00086
  66        9PY        -0.00004  -0.00003  -0.00001  -0.00002  -0.00014
  67        9PZ         0.00001  -0.00000  -0.00005  -0.00002  -0.00149
  68       10PX        -0.00002  -0.00006  -0.00003   0.00009   0.00064
  69       10PY         0.00010   0.00009   0.00001   0.00006  -0.00069
  70       10PZ        -0.00002   0.00000   0.00011   0.00004   0.00066
  71       11PX         0.00000  -0.00008  -0.00002   0.00009   0.00171
  72       11PY         0.00013   0.00010   0.00003   0.00007   0.00250
  73       11PZ        -0.00002   0.00003   0.00011   0.00005   0.00424
  74 7   O  1S         -0.00000  -0.00000  -0.00000  -0.00000  -0.00002
  75        2S         -0.00000  -0.00000  -0.00000  -0.00000  -0.00000
  76        2PX        -0.00000   0.00000  -0.00000  -0.00000  -0.00009
  77        2PY        -0.00000  -0.00000   0.00000   0.00000  -0.00014
  78        2PZ         0.00000  -0.00000  -0.00000  -0.00000  -0.00023
  79        3S          0.00001   0.00001   0.00003   0.00003   0.00015
  80        3PX         0.00000  -0.00001   0.00001   0.00001   0.00025
  81        3PY         0.00002   0.00001  -0.00000  -0.00000   0.00038
  82        3PZ        -0.00001   0.00000   0.00001   0.00001   0.00062
  83        4S         -0.00004  -0.00004  -0.00011  -0.00011   0.00022
  84        4PX         0.00000   0.00004   0.00001  -0.00001  -0.00006
  85        4PY        -0.00004  -0.00003   0.00003   0.00002  -0.00010
  86        4PZ         0.00003   0.00000   0.00001   0.00003  -0.00016
  87 8   Cl 1S         -0.00005  -0.00000  -0.00010  -0.00000  -0.00000
  88        2S         -0.00014  -0.00000  -0.00027  -0.00000   0.00003
  89        3S          0.00023   0.00000   0.00046  -0.00000  -0.00028
  90        4S          0.00023  -0.00000   0.00045   0.00001   0.00067
  91        5S         -0.00001   0.00002   0.00000  -0.00003  -0.00169
  92        6S          0.00001  -0.00006  -0.00003   0.00008   0.00497
  93        7PX         0.01589   0.00004   0.05727   0.00016  -0.00023
  94        7PY         0.79287   0.00172   0.13608   0.00028  -0.00002
  95        7PZ        -0.13751  -0.00017   0.79121   0.00221  -0.00003
  96        8PX        -0.00539  -0.00002  -0.01941  -0.00005   0.00004
  97        8PY        -0.26872  -0.00058  -0.04612  -0.00010  -0.00001
  98        8PZ         0.04661   0.00006  -0.26816  -0.00075  -0.00001
  99        9PX         0.00103   0.00002   0.00372  -0.00001   0.00047
 100        9PY         0.05142   0.00012   0.00882   0.00002   0.00010
 101        9PZ        -0.00892  -0.00002   0.05129   0.00015   0.00012
 102       10PX        -0.00001  -0.00004  -0.00005   0.00004  -0.00045
 103       10PY        -0.00071  -0.00001  -0.00012   0.00001  -0.00023
 104       10PZ         0.00013   0.00002  -0.00071  -0.00002  -0.00023
 105       11PX        -0.00001   0.00000  -0.00003  -0.00001   0.00216
 106       11PY        -0.00008  -0.00004  -0.00003  -0.00004   0.00035
 107       11PZ         0.00000  -0.00004  -0.00008   0.00000  -0.00023
 108 9   Cl 1S          0.00000  -0.00005   0.00000  -0.00010  -0.00000
 109        2S          0.00000  -0.00013   0.00000  -0.00027   0.00003
 110        3S          0.00000   0.00022  -0.00000   0.00046  -0.00028
 111        4S         -0.00000   0.00023   0.00000   0.00045   0.00067
 112        5S          0.00002  -0.00001  -0.00003   0.00000  -0.00169
 113        6S         -0.00006   0.00001   0.00008  -0.00003   0.00497
 114        7PX         0.00113  -0.49309  -0.00148   0.55975   0.00006
 115        7PY        -0.00128   0.61345  -0.00098   0.31718   0.00008
 116        7PZ        -0.00031   0.16838  -0.00136   0.48362  -0.00021
 117        8PX        -0.00038   0.16712   0.00050  -0.18971  -0.00002
 118        8PY         0.00043  -0.20791   0.00033  -0.10750  -0.00003
 119        8PZ         0.00010  -0.05707   0.00046  -0.16391   0.00002
 120        9PX         0.00006  -0.03198  -0.00008   0.03628  -0.00010
 121        9PY        -0.00009   0.03978  -0.00005   0.02056  -0.00011
 122        9PZ        -0.00001   0.01092  -0.00010   0.03136   0.00047
 123       10PX         0.00003   0.00045  -0.00003  -0.00050   0.00008
 124       10PY         0.00002  -0.00055  -0.00002  -0.00028  -0.00004
 125       10PZ        -0.00002  -0.00015   0.00003  -0.00043  -0.00055
 126       11PX        -0.00002   0.00004   0.00002  -0.00004  -0.00108
 127       11PY        -0.00004  -0.00007  -0.00003  -0.00003  -0.00079
 128       11PZ        -0.00003  -0.00003  -0.00002  -0.00007   0.00174
                          16        17        18        19        20
                           O         O         O         O         O
     Eigenvalues --    -5.36268  -4.94101  -4.93987  -4.93779  -3.72331
   1 1   Si 1S         -0.11702  -0.00000   0.00000  -0.00000   0.00099
   2        2S         -0.30378   0.00000  -0.00000  -0.00000   0.00263
   3        3S          0.53570  -0.00000   0.00002   0.00002  -0.00522
   4        4S          0.57214   0.00000  -0.00006  -0.00005  -0.00421
   5        5S          0.06066  -0.00000   0.00017   0.00040   0.00102
   6        6S         -0.03882   0.00000   0.00017  -0.00065  -0.00329
   7        7PX         0.00076  -0.00000   0.00000  -0.00000   0.11262
   8        7PY         0.00157  -0.00000  -0.00000   0.00000   0.22641
   9        7PZ         0.00214   0.00000   0.00000   0.00000   0.31447
  10        8PX         0.00164   0.00000  -0.00001   0.00000   0.19218
  11        8PY         0.00331   0.00000  -0.00000  -0.00003   0.38617
  12        8PZ         0.00459  -0.00000  -0.00001  -0.00002   0.53653
  13        9PX         0.00009  -0.00001   0.00003  -0.00003   0.01713
  14        9PY         0.00052  -0.00000  -0.00002   0.00023   0.03491
  15        9PZ         0.00045   0.00001   0.00005   0.00008   0.04811
  16       10PX        -0.00012   0.00001  -0.00008   0.00016  -0.00313
  17       10PY         0.00040   0.00000   0.00025  -0.00044  -0.00652
  18       10PZ         0.00003  -0.00001   0.00002   0.00001  -0.00888
  19       11PX         0.00199  -0.00011   0.00021   0.00011   0.00097
  20       11PY        -0.00233  -0.00004  -0.00052  -0.00016   0.00216
  21       11PZ         0.00191   0.00007   0.00005   0.00009   0.00283
  22 2   H  1S          0.00014   0.00000  -0.00002   0.00001  -0.00025
  23        2S         -0.00200  -0.00000   0.00016  -0.00013  -0.00076
  24        3S          0.00533   0.00000  -0.00052  -0.00008   0.00121
  25        4PX         0.00028   0.00001  -0.00000   0.00001   0.00007
  26        4PY        -0.00077   0.00000   0.00000  -0.00004   0.00012
  27        4PZ         0.00001  -0.00001  -0.00001   0.00000   0.00018
  28 3   H  1S          0.00030  -0.00000   0.00001  -0.00003  -0.00012
  29        2S         -0.00294   0.00002  -0.00004   0.00014  -0.00056
  30        3S          0.00931  -0.00004   0.00008   0.00029   0.00091
  31        4PX         0.00024   0.00000   0.00001  -0.00004   0.00011
  32        4PY         0.00046  -0.00002   0.00000   0.00004   0.00016
  33        4PZ        -0.00071  -0.00001  -0.00002   0.00005   0.00010
  34 4   H  1S          0.00030   0.00000   0.00001  -0.00003  -0.00012
  35        2S         -0.00294  -0.00002  -0.00004   0.00014  -0.00056
  36        3S          0.00931   0.00004   0.00008   0.00029   0.00091
  37        4PX        -0.00087   0.00000  -0.00002   0.00004  -0.00003
  38        4PY         0.00007   0.00002  -0.00001   0.00007   0.00011
  39        4PZ        -0.00003   0.00001  -0.00000   0.00000   0.00019
  40 5   O  1S         -0.00004  -0.00000   0.00011   0.00007  -0.00021
  41        2S         -0.00005  -0.00000   0.00016   0.00011  -0.00030
  42        2PX        -0.00002   0.00002   0.00007   0.00005  -0.00016
  43        2PY        -0.00017   0.00001  -0.00018  -0.00009  -0.00019
  44        2PZ        -0.00013  -0.00001   0.00002   0.00003  -0.00037
  45        3S          0.00041   0.00000  -0.00029  -0.00034   0.00071
  46        3PX        -0.00013   0.00003   0.00006   0.00010  -0.00010
  47        3PY         0.00052   0.00001  -0.00036  -0.00027  -0.00016
  48        3PZ         0.00008  -0.00002  -0.00011   0.00001  -0.00026
  49        4S         -0.00020   0.00000  -0.00092  -0.00008   0.00177
  50        4PX         0.00112   0.00022   0.00033   0.00010  -0.00049
  51        4PY        -0.00093   0.00008  -0.00064  -0.00000  -0.00064
  52        4PZ         0.00129  -0.00013   0.00017   0.00017  -0.00118
  53 6   P  1S         -0.00000  -0.00000   0.00040  -0.00118   0.00000
  54        2S          0.00000  -0.00000   0.00105  -0.00314   0.00001
  55        3S         -0.00001   0.00000  -0.00196   0.00577  -0.00002
  56        4S          0.00005   0.00000  -0.00183   0.00529   0.00004
  57        5S         -0.00073  -0.00000   0.00062  -0.00088  -0.00047
  58        6S          0.00328  -0.00000   0.00029   0.00065   0.00044
  59        7PX         0.00000   0.33379  -0.21384   0.09704   0.00000
  60        7PY        -0.00000   0.11696   0.29767   0.25365   0.00001
  61        7PZ         0.00000  -0.20357  -0.17959   0.30485   0.00001
  62        8PX        -0.00002   0.55708  -0.35686   0.16187  -0.00001
  63        8PY        -0.00000   0.19521   0.49676   0.42312  -0.00002
  64        8PZ        -0.00004  -0.33975  -0.29971   0.50854  -0.00003
  65        9PX         0.00010   0.04531  -0.02889   0.01304   0.00006
  66        9PY         0.00019   0.01588   0.04026   0.03409   0.00023
  67        9PZ         0.00028  -0.02764  -0.02424   0.04096   0.00022
  68       10PX         0.00000  -0.00323   0.00208  -0.00079  -0.00011
  69       10PY        -0.00145  -0.00113  -0.00311  -0.00213  -0.00045
  70       10PZ        -0.00083   0.00197   0.00163  -0.00252  -0.00043
  71       11PX        -0.00034   0.00042  -0.00043   0.00010  -0.00042
  72       11PY        -0.00215   0.00015   0.00068   0.00060   0.00002
  73       11PZ        -0.00178  -0.00026  -0.00032   0.00051  -0.00068
  74 7   O  1S          0.00001  -0.00000   0.00002  -0.00013   0.00000
  75        2S          0.00003  -0.00000   0.00003  -0.00021   0.00001
  76        2PX        -0.00000   0.00000   0.00001  -0.00007   0.00000
  77        2PY         0.00006   0.00000   0.00002  -0.00009  -0.00000
  78        2PZ         0.00003  -0.00000   0.00003  -0.00016   0.00001
  79        3S         -0.00029   0.00000  -0.00006   0.00074  -0.00015
  80        3PX         0.00001   0.00009  -0.00004  -0.00018  -0.00002
  81        3PY        -0.00027   0.00003   0.00015  -0.00023   0.00000
  82        3PZ        -0.00013  -0.00005   0.00003  -0.00043  -0.00002
  83        4S          0.00105   0.00000  -0.00021  -0.00001   0.00049
  84        4PX        -0.00015   0.00008   0.00003  -0.00003  -0.00002
  85        4PY         0.00053   0.00003   0.00009  -0.00002  -0.00009
  86        4PZ         0.00006  -0.00005   0.00009  -0.00005  -0.00008
  87 8   Cl 1S         -0.00000  -0.00001   0.00001  -0.00000   0.00000
  88        2S          0.00000  -0.00004   0.00002  -0.00001  -0.00000
  89        3S         -0.00006   0.00006  -0.00003   0.00001   0.00002
  90        4S          0.00018   0.00016  -0.00013   0.00006  -0.00006
  91        5S         -0.00043  -0.00004   0.00013  -0.00007   0.00025
  92        6S          0.00017  -0.00065   0.00020  -0.00017  -0.00077
  93        7PX        -0.00003   0.00015  -0.00011   0.00007  -0.00002
  94        7PY        -0.00004  -0.00000   0.00001  -0.00000   0.00001
  95        7PZ        -0.00002  -0.00000  -0.00000  -0.00000   0.00001
  96        8PX        -0.00001  -0.00007   0.00004  -0.00001  -0.00001
  97        8PY        -0.00001   0.00000   0.00001   0.00001   0.00000
  98        8PZ        -0.00001  -0.00001  -0.00001   0.00001   0.00000
  99        9PX         0.00016   0.00006   0.00003  -0.00006   0.00010
 100        9PY         0.00013  -0.00002  -0.00008  -0.00005  -0.00005
 101        9PZ         0.00009   0.00005   0.00003  -0.00006  -0.00003
 102       10PX        -0.00048  -0.00070   0.00033  -0.00010  -0.00025
 103       10PY        -0.00019   0.00005   0.00020   0.00013   0.00014
 104       10PZ        -0.00014  -0.00013  -0.00007   0.00015   0.00008
 105       11PX         0.00063  -0.00025   0.00012  -0.00008  -0.00001
 106       11PY         0.00027   0.00005  -0.00013  -0.00009  -0.00002
 107       11PZ         0.00028   0.00006  -0.00006  -0.00004   0.00012
 108 9   Cl 1S         -0.00000   0.00001   0.00001  -0.00000   0.00000
 109        2S          0.00000   0.00004   0.00002  -0.00001  -0.00000
 110        3S         -0.00006  -0.00006  -0.00003   0.00001   0.00002
 111        4S          0.00018  -0.00016  -0.00013   0.00006  -0.00006
 112        5S         -0.00043   0.00004   0.00013  -0.00007   0.00025
 113        6S          0.00017   0.00065   0.00020  -0.00017  -0.00077
 114        7PX         0.00001   0.00005   0.00003  -0.00002   0.00001
 115        7PY        -0.00002   0.00007   0.00006  -0.00003   0.00002
 116        7PZ        -0.00005  -0.00012  -0.00009   0.00005  -0.00001
 117        8PX         0.00000  -0.00002  -0.00002   0.00001   0.00000
 118        8PY        -0.00001  -0.00003  -0.00001   0.00001   0.00001
 119        8PZ        -0.00001   0.00006   0.00003  -0.00000  -0.00000
 120        9PX        -0.00004  -0.00003   0.00006  -0.00000  -0.00004
 121        9PY         0.00006   0.00003  -0.00007  -0.00002  -0.00010
 122        9PZ         0.00021  -0.00007   0.00002  -0.00009   0.00005
 123       10PX         0.00013  -0.00011  -0.00026   0.00009   0.00008
 124       10PY         0.00003  -0.00033  -0.00001   0.00020   0.00025
 125       10PZ        -0.00052   0.00062   0.00029   0.00003  -0.00012
 126       11PX        -0.00011  -0.00011  -0.00003   0.00003   0.00011
 127       11PY         0.00001  -0.00017  -0.00018  -0.00005   0.00002
 128       11PZ         0.00074   0.00016   0.00003  -0.00011   0.00005
                          21        22        23        24        25
                           O         O         O         O         O
     Eigenvalues --    -3.71908  -3.71883  -1.08498  -0.96970  -0.91659
   1 1   Si 1S          0.00003   0.00000   0.00441  -0.00212  -0.00009
   2        2S          0.00007   0.00000   0.01201  -0.00581  -0.00019
   3        3S         -0.00012  -0.00000  -0.02642   0.01302  -0.00005
   4        4S         -0.00026  -0.00000  -0.04234   0.02023   0.00273
   5        5S          0.00068  -0.00000   0.07879  -0.03475  -0.00979
   6        6S         -0.00099   0.00000  -0.02844   0.00443  -0.00186
   7        7PX        -0.20270   0.33069  -0.00425   0.00253  -0.00067
   8        7PY         0.31389   0.11516  -0.00857   0.00312   0.00054
   9        7PZ        -0.15339  -0.20134  -0.01188   0.00593  -0.00079
  10        8PX        -0.34550   0.56363  -0.00791   0.00472  -0.00125
  11        8PY         0.53490   0.19629  -0.01559   0.00583   0.00108
  12        8PZ        -0.26150  -0.34317  -0.02190   0.01107  -0.00142
  13        9PX        -0.03056   0.04976   0.01021  -0.00615   0.00158
  14        9PY         0.04757   0.01733   0.01727  -0.00833  -0.00062
  15        9PZ        -0.02298  -0.03029   0.02663  -0.01485   0.00223
  16       10PX         0.00492  -0.00788  -0.00424  -0.00051   0.00034
  17       10PY        -0.00774  -0.00275   0.00561   0.00416  -0.01088
  18       10PZ         0.00366   0.00480  -0.00371   0.00156  -0.00572
  19       11PX        -0.00165   0.00245   0.00650   0.00080  -0.00318
  20       11PY         0.00290   0.00085  -0.01209  -0.02560   0.02756
  21       11PZ        -0.00104  -0.00149   0.00371  -0.01345   0.01070
  22 2   H  1S         -0.00057   0.00000   0.00186  -0.00242   0.00095
  23        2S         -0.00121   0.00001   0.00322   0.00516  -0.00678
  24        3S          0.00136  -0.00001  -0.00131  -0.02292   0.02256
  25        4PX        -0.00014   0.00011   0.00020  -0.00013   0.00019
  26        4PY         0.00026   0.00004   0.00049   0.00031  -0.00046
  27        4PZ        -0.00008  -0.00007   0.00061  -0.00003   0.00005
  28 3   H  1S          0.00035   0.00052   0.00292  -0.00165  -0.00047
  29        2S          0.00050   0.00095   0.00119   0.00455  -0.00540
  30        3S         -0.00015  -0.00044   0.01043  -0.01065   0.00253
  31        4PX        -0.00004   0.00015   0.00053  -0.00023   0.00018
  32        4PY         0.00016   0.00011   0.00113   0.00007  -0.00076
  33        4PZ        -0.00013  -0.00011   0.00032  -0.00016  -0.00024
  34 4   H  1S          0.00035  -0.00052   0.00291  -0.00166  -0.00047
  35        2S          0.00049  -0.00095   0.00120   0.00454  -0.00538
  36        3S         -0.00015   0.00044   0.01036  -0.01063   0.00253
  37        4PX        -0.00017   0.00020  -0.00045  -0.00008   0.00011
  38        4PY         0.00012   0.00001   0.00078   0.00012  -0.00078
  39        4PZ        -0.00006  -0.00010   0.00092  -0.00025  -0.00019
  40 5   O  1S          0.00002  -0.00000  -0.10666   0.04343  -0.00882
  41        2S          0.00002  -0.00000  -0.17039   0.06943  -0.01402
  42        2PX        -0.00000   0.00005  -0.02753   0.00757   0.00130
  43        2PY         0.00006   0.00002   0.03104   0.00269   0.00036
  44        2PZ         0.00003  -0.00003  -0.02723   0.01393   0.00233
  45        3S          0.00001   0.00000   0.47977  -0.19515   0.03778
  46        3PX        -0.00003   0.00002  -0.04818   0.01368   0.00243
  47        3PY         0.00003   0.00001   0.05682   0.00350   0.00120
  48        3PZ        -0.00004  -0.00001  -0.04620   0.02440   0.00466
  49        4S         -0.00051   0.00000   0.45076  -0.20875   0.05409
  50        4PX        -0.00002   0.00038  -0.05269   0.02073  -0.00529
  51        4PY         0.00035   0.00013   0.04501  -0.00960   0.00518
  52        4PZ         0.00016  -0.00023  -0.06037   0.02842  -0.00568
  53 6   P  1S          0.00000  -0.00000   0.01323   0.01474  -0.00162
  54        2S          0.00000  -0.00000   0.03610   0.04022  -0.00442
  55        3S         -0.00003   0.00000  -0.07353  -0.08201   0.00897
  56        4S          0.00008  -0.00000  -0.14402  -0.16398   0.01829
  57        5S         -0.00049   0.00000   0.25239   0.28616  -0.02244
  58        6S          0.00032   0.00000   0.03408   0.11646  -0.06815
  59        7PX         0.00000  -0.00000  -0.00525   0.00472  -0.01754
  60        7PY         0.00001  -0.00000   0.01966  -0.02271  -0.00389
  61        7PZ         0.00001   0.00000   0.00271  -0.00533  -0.03093
  62        8PX        -0.00002   0.00000  -0.01008   0.00777  -0.03093
  63        8PY        -0.00002   0.00000   0.03607  -0.04087  -0.00712
  64        8PZ        -0.00004  -0.00000   0.00423  -0.01078  -0.05469
  65        9PX         0.00012  -0.00001   0.01530  -0.00564   0.03477
  66        9PY         0.00014  -0.00000  -0.04542   0.04966   0.00873
  67        9PZ         0.00027   0.00000  -0.00106   0.01933   0.06191
  68       10PX        -0.00026  -0.00007  -0.00346  -0.02842   0.06357
  69       10PY        -0.00019  -0.00002  -0.03523   0.05994   0.01281
  70       10PZ        -0.00053   0.00004  -0.02593  -0.01205   0.11135
  71       11PX        -0.00000  -0.00040  -0.00006  -0.00070  -0.00601
  72       11PY        -0.00062  -0.00014   0.00387  -0.02721   0.00879
  73       11PZ        -0.00036   0.00025   0.00214  -0.01677  -0.00477
  74 7   O  1S          0.00000  -0.00000  -0.01530  -0.07373  -0.08610
  75        2S          0.00001  -0.00000  -0.02441  -0.11804  -0.13792
  76        2PX        -0.00000   0.00000  -0.00325  -0.01363  -0.01074
  77        2PY         0.00001   0.00000  -0.00600  -0.01554  -0.01683
  78        2PZ         0.00001  -0.00000  -0.00877  -0.03126  -0.02727
  79        3S         -0.00011   0.00000   0.06926   0.34071   0.39931
  80        3PX         0.00001  -0.00002  -0.00556  -0.02486  -0.01924
  81        3PY        -0.00006  -0.00001  -0.01082  -0.02926  -0.03041
  82        3PZ        -0.00002   0.00001  -0.01534  -0.05754  -0.04901
  83        4S          0.00044  -0.00000   0.05954   0.28392   0.34257
  84        4PX        -0.00008   0.00006  -0.00582  -0.01696  -0.01717
  85        4PY         0.00004   0.00002  -0.00872  -0.02051  -0.02208
  86        4PZ        -0.00010  -0.00004  -0.01455  -0.03957  -0.04082
  87 8   Cl 1S          0.00000   0.00000   0.00409   0.01428  -0.01780
  88        2S         -0.00000  -0.00000   0.01165   0.04075  -0.05088
  89        3S          0.00001   0.00002  -0.02316  -0.08156   0.10241
  90        4S         -0.00002  -0.00007  -0.04441  -0.15587   0.19382
  91        5S          0.00015   0.00019   0.06637   0.24050  -0.30047
  92        6S         -0.00052  -0.00027   0.05371   0.18312  -0.24175
  93        7PX        -0.00003   0.00000  -0.01117  -0.02587   0.02239
  94        7PY         0.00000   0.00000   0.00145  -0.00109  -0.00137
  95        7PZ         0.00000  -0.00000   0.00079   0.00128  -0.00511
  96        8PX        -0.00001   0.00000   0.00414   0.00979  -0.00862
  97        8PY         0.00000   0.00000  -0.00058   0.00041   0.00051
  98        8PZ         0.00000  -0.00000  -0.00023  -0.00048   0.00188
  99        9PX         0.00012  -0.00002   0.01014   0.02368  -0.02035
 100        9PY        -0.00001  -0.00001  -0.00102   0.00090   0.00141
 101        9PZ        -0.00002   0.00001  -0.00122  -0.00132   0.00519
 102       10PX        -0.00030   0.00009   0.02818   0.06825  -0.06209
 103       10PY         0.00005   0.00000  -0.00437   0.00285   0.00316
 104       10PZ         0.00003  -0.00003  -0.00017  -0.00320   0.01183
 105       11PX         0.00014  -0.00029   0.00350   0.00438  -0.00433
 106       11PY         0.00019  -0.00008  -0.00260   0.00097   0.00373
 107       11PZ         0.00027   0.00000  -0.00325   0.00007   0.00748
 108 9   Cl 1S          0.00000  -0.00000   0.00409   0.01428  -0.01777
 109        2S         -0.00000   0.00000   0.01165   0.04074  -0.05079
 110        3S          0.00001  -0.00002  -0.02316  -0.08154   0.10224
 111        4S         -0.00002   0.00007  -0.04440  -0.15582   0.19350
 112        5S          0.00015  -0.00019   0.06637   0.24043  -0.29999
 113        6S         -0.00052   0.00027   0.05369   0.18307  -0.24131
 114        7PX         0.00001   0.00000   0.00373   0.01027  -0.01106
 115        7PY         0.00001  -0.00000   0.00668   0.01160  -0.01310
 116        7PZ        -0.00002  -0.00000  -0.00831  -0.02078   0.01529
 117        8PX         0.00000   0.00000  -0.00131  -0.00388   0.00420
 118        8PY         0.00000  -0.00000  -0.00249  -0.00439   0.00501
 119        8PZ        -0.00001  -0.00000   0.00310   0.00787  -0.00594
 120        9PX        -0.00005  -0.00002  -0.00393  -0.00948   0.01043
 121        9PY        -0.00007  -0.00000  -0.00596  -0.01074   0.01220
 122        9PZ         0.00008   0.00002   0.00738   0.01892  -0.01358
 123       10PX         0.00010   0.00006  -0.00758  -0.02692   0.02904
 124       10PY         0.00019   0.00004  -0.01692  -0.03058   0.03512
 125       10PZ        -0.00021  -0.00005   0.02166   0.05491  -0.04376
 126       11PX         0.00009  -0.00014  -0.00261  -0.00187   0.00581
 127       11PY         0.00017  -0.00007  -0.00473  -0.00121   0.00726
 128       11PZ         0.00030   0.00025   0.00049   0.00389   0.00130
                          26        27        28        29        30
                           O         O         O         O         O
     Eigenvalues --    -0.90476  -0.66060  -0.60664  -0.52063  -0.51717
   1 1   Si 1S         -0.00000  -0.01056   0.02342  -0.00726  -0.00000
   2        2S         -0.00000  -0.02892   0.06427  -0.02014  -0.00001
   3        3S          0.00000   0.06539  -0.14645   0.04784   0.00003
   4        4S          0.00000   0.10781  -0.23878   0.06843   0.00005
   5        5S         -0.00001  -0.19977   0.45608  -0.11129  -0.00008
   6        6S          0.00004  -0.08011   0.21804  -0.14518  -0.00008
   7        7PX        -0.00067   0.00556   0.00377  -0.01714  -0.00854
   8        7PY        -0.00023   0.00110  -0.00168  -0.00312  -0.00299
   9        7PZ         0.00041   0.00974   0.00521  -0.02988   0.00519
  10        8PX        -0.00110   0.01039   0.00621  -0.03055  -0.01463
  11        8PY        -0.00039   0.00236  -0.00300  -0.00630  -0.00513
  12        8PZ         0.00068   0.01835   0.00846  -0.05367   0.00888
  13        9PX         0.00048  -0.01464  -0.00537   0.03986   0.01487
  14        9PY         0.00017  -0.00403  -0.00136   0.01386   0.00522
  15        9PZ        -0.00030  -0.02627  -0.00959   0.07325  -0.00902
  16       10PX         0.00398  -0.01126  -0.01752   0.05216   0.04418
  17       10PY         0.00139   0.00098   0.03688  -0.01855   0.01547
  18       10PZ        -0.00242  -0.01787  -0.00750   0.07480  -0.02690
  19       11PX         0.00825   0.00949  -0.00683   0.02352   0.00749
  20       11PY         0.00288  -0.05034  -0.02202  -0.04452   0.00261
  21       11PZ        -0.00506  -0.01348  -0.02381   0.01278  -0.00458
  22 2   H  1S          0.00000  -0.02603   0.06000  -0.02361   0.00001
  23        2S         -0.00000  -0.02511   0.11138  -0.04919  -0.00002
  24        3S         -0.00003  -0.04836   0.00260  -0.03417  -0.00001
  25        4PX        -0.00039   0.00105  -0.00547   0.00442  -0.00055
  26        4PY        -0.00014  -0.00377   0.01522  -0.00808  -0.00020
  27        4PZ         0.00024  -0.00047  -0.00015   0.00254   0.00034
  28 3   H  1S          0.00067  -0.02123   0.06853  -0.05314   0.01178
  29        2S          0.00483  -0.02341   0.10735  -0.08740   0.01346
  30        3S         -0.00784  -0.01344   0.00547  -0.01242  -0.00138
  31        4PX        -0.00006   0.00104  -0.00435   0.00366  -0.00009
  32        4PY         0.00109   0.00202  -0.00678   0.00554   0.00032
  33        4PZ         0.00041  -0.00335   0.01131  -0.00894   0.00119
  34 4   H  1S         -0.00067  -0.02124   0.06849  -0.05304  -0.01189
  35        2S         -0.00479  -0.02343   0.10730  -0.08725  -0.01359
  36        3S          0.00780  -0.01345   0.00542  -0.01234   0.00131
  37        4PX         0.00016  -0.00403   0.01388  -0.01112  -0.00086
  38        4PY        -0.00105   0.00023  -0.00034   0.00032  -0.00065
  39        4PZ        -0.00047  -0.00024   0.00014   0.00013  -0.00062
  40 5   O  1S          0.00001   0.02401   0.02735  -0.02186  -0.00002
  41        2S          0.00001   0.03865   0.04421  -0.03528  -0.00003
  42        2PX         0.00462  -0.01338  -0.02417   0.02634   0.07285
  43        2PY         0.00162   0.10374  -0.04486  -0.15669   0.02544
  44        2PZ        -0.00282   0.03772  -0.06535  -0.04681  -0.04451
  45        3S         -0.00003  -0.11264  -0.13044   0.10313   0.00010
  46        3PX         0.00712  -0.01880  -0.03284   0.03583   0.10501
  47        3PY         0.00250   0.15715  -0.07173  -0.22915   0.03667
  48        3PZ        -0.00435   0.05955  -0.09498  -0.07286  -0.06417
  49        4S         -0.00004  -0.14788  -0.17790   0.16063   0.00014
  50        4PX         0.00368  -0.00783  -0.02121   0.02484   0.09602
  51        4PY         0.00129   0.11493  -0.05901  -0.20438   0.03353
  52        4PZ        -0.00224   0.05325  -0.06864  -0.07662  -0.05868
  53 6   P  1S          0.00000   0.02363   0.00775   0.00069   0.00000
  54        2S          0.00001   0.06496   0.02138   0.00193   0.00001
  55        3S         -0.00001  -0.13669  -0.04571  -0.00422  -0.00001
  56        4S         -0.00003  -0.26518  -0.08510  -0.00712  -0.00002
  57        5S          0.00005   0.48393   0.14578   0.00079   0.00003
  58        6S          0.00005   0.33205   0.16056   0.09384   0.00008
  59        7PX        -0.02495   0.00280   0.01622   0.02801  -0.05610
  60        7PY        -0.00876   0.01485  -0.01495  -0.05274  -0.01976
  61        7PZ         0.01526   0.01313   0.01796   0.01542   0.03429
  62        8PX        -0.04333   0.00417   0.02768   0.04832  -0.09529
  63        8PY        -0.01522   0.02677  -0.02712  -0.09060  -0.03356
  64        8PZ         0.02650   0.02223   0.02971   0.02683   0.05824
  65        9PX         0.04606  -0.00061  -0.02998  -0.05832   0.10760
  66        9PY         0.01618  -0.03575   0.03885   0.10623   0.03790
  67        9PZ        -0.02818  -0.02155  -0.02674  -0.03419  -0.06577
  68       10PX         0.10262  -0.03432  -0.08887  -0.13888   0.31369
  69       10PY         0.03606  -0.05176   0.04662   0.27084   0.11046
  70       10PZ        -0.06275  -0.08596  -0.11866  -0.07105  -0.19169
  71       11PX        -0.03336  -0.02262  -0.01716  -0.00793   0.01702
  72       11PY        -0.01172  -0.02443  -0.01184   0.00199   0.00597
  73       11PZ         0.02037  -0.05104  -0.03494  -0.01172  -0.01042
  74 7   O  1S          0.00004   0.03522   0.00557   0.00317   0.00000
  75        2S          0.00007   0.05680   0.00919   0.00492   0.00001
  76        2PX         0.00334  -0.00677  -0.00648  -0.01736   0.03066
  77        2PY         0.00118  -0.01316   0.00465   0.02459   0.01080
  78        2PZ        -0.00202  -0.01866  -0.00793  -0.01423  -0.01875
  79        3S         -0.00020  -0.17003  -0.03191  -0.01063  -0.00002
  80        3PX         0.00546  -0.01005  -0.01013  -0.02655   0.04746
  81        3PY         0.00193  -0.01957   0.00714   0.03769   0.01671
  82        3PZ        -0.00331  -0.02772  -0.01248  -0.02171  -0.02902
  83        4S         -0.00017  -0.16422  -0.00548  -0.04283  -0.00003
  84        4PX         0.00155  -0.00226  -0.00999  -0.01170   0.02470
  85        4PY         0.00055  -0.01066  -0.00289   0.03054   0.00870
  86        4PZ        -0.00092  -0.00984  -0.01802  -0.00156  -0.01509
  87 8   Cl 1S         -0.02604  -0.01244  -0.00735  -0.00426   0.00880
  88        2S         -0.07448  -0.03582  -0.02116  -0.01230   0.02536
  89        3S          0.15059   0.07440   0.04401   0.02595  -0.05286
  90        4S          0.28149   0.13241   0.07866   0.04480  -0.09514
  91        5S         -0.43048  -0.20280  -0.12156  -0.06787   0.15330
  92        6S         -0.38681  -0.25415  -0.15714  -0.10087   0.17176
  93        7PX         0.02915  -0.04813  -0.03982  -0.05686   0.10912
  94        7PY        -0.00267   0.00136   0.00128  -0.03814  -0.01679
  95        7PZ        -0.00071   0.00154   0.00974   0.00557   0.02139
  96        8PX        -0.01148   0.01776   0.01471   0.02129  -0.04096
  97        8PY         0.00100  -0.00041  -0.00048   0.01446   0.00635
  98        8PZ         0.00044  -0.00051  -0.00365  -0.00207  -0.00807
  99        9PX        -0.02488   0.05202   0.04416   0.06288  -0.11990
 100        9PY         0.00266  -0.00200  -0.00145   0.04147   0.01840
 101        9PZ        -0.00028  -0.00198  -0.01056  -0.00637  -0.02363
 102       10PX        -0.08816   0.10570   0.08634   0.13515  -0.26299
 103       10PY         0.00647  -0.00081  -0.00192   0.09690   0.04108
 104       10PZ         0.00595  -0.00205  -0.02296  -0.01229  -0.05435
 105       11PX        -0.01553   0.01136   0.01749   0.04098  -0.09816
 106       11PY         0.00600  -0.00386  -0.00516   0.04154   0.02401
 107       11PZ        -0.00185   0.00591  -0.00555  -0.01016  -0.01780
 108 9   Cl 1S          0.02606  -0.01244  -0.00735  -0.00424  -0.00881
 109        2S          0.07455  -0.03582  -0.02116  -0.01226  -0.02539
 110        3S         -0.15072   0.07440   0.04400   0.02585   0.05291
 111        4S         -0.28174   0.13241   0.07864   0.04463   0.09523
 112        5S          0.43086  -0.20279  -0.12154  -0.06761  -0.15342
 113        6S          0.38711  -0.25414  -0.15712  -0.10056  -0.17198
 114        7PX         0.00916   0.01682   0.02076   0.04157   0.01149
 115        7PY         0.01613   0.02416   0.02255  -0.00366   0.05911
 116        7PZ        -0.02269  -0.03812  -0.02723  -0.05438  -0.09508
 117        8PX        -0.00376  -0.00620  -0.00771  -0.01563  -0.00426
 118        8PY        -0.00636  -0.00883  -0.00835   0.00153  -0.02221
 119        8PZ         0.00887   0.01412   0.01003   0.02042   0.03570
 120        9PX        -0.00693  -0.01819  -0.02281  -0.04581  -0.01254
 121        9PY        -0.01383  -0.02665  -0.02496   0.00341  -0.06487
 122        9PZ         0.01970   0.04089   0.03032   0.05984   0.10455
 123       10PX        -0.03154  -0.03689  -0.04691  -0.10098  -0.02513
 124       10PY        -0.04855  -0.05089  -0.04869   0.01419  -0.14217
 125       10PZ         0.06719   0.08499   0.05837   0.13152   0.23035
 126       11PX        -0.00091   0.00281  -0.00802  -0.04154  -0.00734
 127       11PY        -0.01178  -0.00683  -0.01412   0.01267  -0.06098
 128       11PZ         0.01188   0.01115   0.01000   0.04015   0.08225
                          31        32        33        34        35
                           O         O         O         O         O
     Eigenvalues --    -0.47306  -0.43924  -0.41829  -0.40132  -0.39230
   1 1   Si 1S          0.00499   0.00000   0.00054  -0.00071   0.00194
   2        2S          0.01377   0.00000   0.00145  -0.00195   0.00534
   3        3S         -0.03209  -0.00001  -0.00304   0.00452  -0.01234
   4        4S         -0.05017  -0.00001  -0.00681   0.00733  -0.02043
   5        5S          0.11106   0.00003   0.02501  -0.00988   0.05054
   6        6S          0.02097  -0.00000  -0.05187  -0.02955   0.00717
   7        7PX        -0.00431   0.04767  -0.00268  -0.02792  -0.01867
   8        7PY         0.03607   0.01674  -0.02741   0.04719   0.02331
   9        7PZ         0.01363  -0.02916  -0.02009  -0.01850  -0.01714
  10        8PX        -0.00705   0.08287  -0.00521  -0.04865  -0.03266
  11        8PY         0.06264   0.02910  -0.04757   0.08217   0.04065
  12        8PZ         0.02437  -0.05069  -0.03580  -0.03228  -0.03007
  13        9PX         0.00488  -0.10618   0.01034   0.06607   0.04768
  14        9PY        -0.07277  -0.03730   0.05888  -0.11194  -0.05914
  15        9PZ        -0.03374   0.06496   0.05068   0.04365   0.04402
  16       10PX         0.03682  -0.17274  -0.01182   0.08955   0.04089
  17       10PY        -0.15505  -0.06061   0.09881  -0.15122  -0.05646
  18       10PZ        -0.02868   0.10559   0.03722   0.05935   0.03427
  19       11PX         0.02526  -0.03324   0.00285   0.02047   0.01835
  20       11PY        -0.07115  -0.01164   0.00137  -0.05331  -0.03879
  21       11PZ         0.00022   0.02030   0.00537   0.00262   0.00755
  22 2   H  1S          0.07873  -0.00020  -0.05238   0.12061   0.08030
  23        2S          0.12637  -0.00031  -0.08457   0.25272   0.18649
  24        3S          0.01478  -0.00013  -0.05134   0.10957   0.06615
  25        4PX        -0.00432  -0.00171   0.00410  -0.00901  -0.00771
  26        4PY         0.01143  -0.00064  -0.00830   0.02762   0.02117
  27        4PZ        -0.00046   0.00105   0.00190   0.00125  -0.00034
  28 3   H  1S          0.00914  -0.09736  -0.00754  -0.06498  -0.04663
  29        2S          0.02952  -0.18002  -0.01708  -0.12823  -0.10480
  30        3S          0.02558  -0.08066  -0.00227  -0.06595  -0.04780
  31        4PX        -0.00313   0.00475   0.00277   0.00827   0.00727
  32        4PY        -0.00414   0.00731   0.00247   0.00541   0.00393
  33        4PZ         0.00312  -0.01829  -0.00032  -0.01237  -0.00987
  34 4   H  1S          0.00940   0.09748  -0.00768  -0.06462  -0.04630
  35        2S          0.02993   0.18019  -0.01728  -0.12745  -0.10399
  36        3S          0.02584   0.08071  -0.00237  -0.06546  -0.04734
  37        4PX         0.00559   0.01998  -0.00237  -0.01531  -0.01223
  38        4PY        -0.00105   0.00143   0.00066  -0.00296  -0.00300
  39        4PZ        -0.00218   0.00316   0.00281   0.00213   0.00215
  40 5   O  1S         -0.01446   0.00002   0.01899   0.00556   0.01704
  41        2S         -0.02363   0.00004   0.03137   0.00858   0.02862
  42        2PX         0.07302  -0.11454  -0.07409   0.00363  -0.09579
  43        2PY        -0.01685  -0.04018  -0.02539  -0.01392   0.09064
  44        2PZ         0.10994   0.06979  -0.13605  -0.00264  -0.10533
  45        3S          0.07556  -0.00013  -0.10642  -0.01543  -0.10943
  46        3PX         0.10374  -0.16060  -0.10024   0.00696  -0.13576
  47        3PY        -0.01989  -0.05634  -0.03904  -0.01953   0.12746
  48        3PZ         0.15853   0.09785  -0.18678  -0.00065  -0.14985
  49        4S          0.07959  -0.00011  -0.07737  -0.10493   0.01436
  50        4PX         0.09753  -0.17531  -0.12554   0.01789  -0.16526
  51        4PY        -0.00960  -0.06151  -0.05007  -0.06615   0.18139
  52        4PZ         0.15428   0.10680  -0.23458  -0.00962  -0.16719
  53 6   P  1S          0.00600   0.00000   0.00447  -0.00034   0.00147
  54        2S          0.01647   0.00000   0.01236  -0.00099   0.00412
  55        3S         -0.03456  -0.00001  -0.02663   0.00246  -0.00937
  56        4S         -0.07038  -0.00002  -0.05066   0.00273  -0.01499
  57        5S          0.14020   0.00006   0.10475  -0.01494   0.04135
  58        6S          0.10100  -0.00008   0.05765   0.06110  -0.04610
  59        7PX        -0.01525  -0.01112  -0.01173   0.00401  -0.00350
  60        7PY        -0.02873  -0.00389  -0.00652   0.01775   0.01694
  61        7PZ        -0.04149   0.00681  -0.02296   0.01676   0.00400
  62        8PX        -0.02527  -0.01931  -0.01912   0.00802  -0.00745
  63        8PY        -0.04739  -0.00675  -0.01199   0.02806   0.03204
  64        8PZ        -0.06863   0.01182  -0.03821   0.02925   0.00620
  65        9PX         0.02472   0.02498   0.01838  -0.01690   0.01872
  66        9PY         0.04588   0.00874   0.01756  -0.01954  -0.05887
  67        9PZ         0.06686  -0.01529   0.04022  -0.03886  -0.00313
  68       10PX         0.10177   0.06433   0.07771   0.00289  -0.01937
  69       10PY         0.19077   0.02248   0.03205  -0.15602  -0.01100
  70       10PZ         0.27631  -0.03936   0.14574  -0.08505  -0.03809
  71       11PX         0.00751  -0.04266  -0.00299   0.01391  -0.02162
  72       11PY        -0.00708  -0.01500  -0.02001  -0.03973   0.04507
  73       11PZ         0.00843   0.02609  -0.01643  -0.00016  -0.00972
  74 7   O  1S          0.03524  -0.00001   0.01864  -0.01189  -0.00316
  75        2S          0.05651  -0.00001   0.03018  -0.01933  -0.00500
  76        2PX        -0.03219   0.01426  -0.02925   0.02716   0.00184
  77        2PY        -0.04496   0.00502  -0.03006   0.01079   0.01339
  78        2PZ        -0.07859  -0.00867  -0.06517   0.05064   0.01061
  79        3S         -0.15973   0.00004  -0.09127   0.05982   0.01288
  80        3PX        -0.04626   0.01764  -0.03921   0.03955   0.00241
  81        3PY        -0.06394   0.00620  -0.04726   0.01248   0.02095
  82        3PZ        -0.11254  -0.01072  -0.09137   0.07188   0.01586
  83        4S         -0.27126   0.00007  -0.11832   0.07094   0.03346
  84        4PX        -0.01642   0.02522  -0.03948   0.02911   0.00171
  85        4PY        -0.02663   0.00887  -0.01651   0.01947   0.00593
  86        4PZ        -0.04223  -0.01539  -0.07412   0.05881   0.00608
  87 8   Cl 1S          0.00091   0.00063   0.00092   0.00007   0.00095
  88        2S          0.00261   0.00183   0.00265   0.00017   0.00275
  89        3S         -0.00537  -0.00407  -0.00551  -0.00013  -0.00575
  90        4S         -0.01010  -0.00590  -0.01014  -0.00168  -0.01045
  91        5S          0.01538   0.01006   0.01613   0.00296   0.02090
  92        6S          0.02176  -0.00428   0.01834   0.00591   0.00514
  93        7PX         0.00842   0.04683   0.02162  -0.02819   0.03636
  94        7PY        -0.03776   0.04752   0.03115   0.08873  -0.09759
  95        7PZ        -0.05067   0.02761  -0.10241  -0.02736   0.00924
  96        8PX        -0.00284  -0.01814  -0.00787   0.01100  -0.01420
  97        8PY         0.01433  -0.01806  -0.01190  -0.03363   0.03709
  98        8PZ         0.01920  -0.01039   0.03888   0.01042  -0.00345
  99        9PX        -0.01199  -0.04865  -0.02656   0.02899  -0.03742
 100        9PY         0.04160  -0.05310  -0.03463  -0.10057   0.11037
 101        9PZ         0.05606  -0.03163   0.11519   0.03088  -0.01091
 102       10PX        -0.00944  -0.13344  -0.04494   0.08335  -0.10652
 103       10PY         0.09668  -0.11945  -0.08063  -0.22781   0.25283
 104       10PZ         0.12901  -0.06666   0.26170   0.06989  -0.02236
 105       11PX        -0.01121  -0.04443  -0.02855   0.02728  -0.04286
 106       11PY         0.04743  -0.07756  -0.04520  -0.11918   0.12417
 107       11PZ         0.05936  -0.05039   0.14843   0.04094  -0.01414
 108 9   Cl 1S          0.00091  -0.00063   0.00092   0.00008   0.00096
 109        2S          0.00261  -0.00183   0.00265   0.00019   0.00277
 110        3S         -0.00537   0.00407  -0.00551  -0.00016  -0.00579
 111        4S         -0.01009   0.00591  -0.01013  -0.00175  -0.01053
 112        5S          0.01535  -0.01009   0.01610   0.00314   0.02107
 113        6S          0.02183   0.00437   0.01834   0.00583   0.00501
 114        7PX        -0.02645   0.01544  -0.10548  -0.05468   0.04073
 115        7PY        -0.05002  -0.02553  -0.01341   0.07918  -0.09632
 116        7PZ        -0.02940  -0.06569  -0.02472  -0.01134   0.00623
 117        8PX         0.00989  -0.00607   0.03996   0.02066  -0.01530
 118        8PY         0.01881   0.00951   0.00487  -0.03015   0.03681
 119        8PZ         0.01143   0.02520   0.00964   0.00458  -0.00266
 120        9PX         0.03027  -0.01538   0.11920   0.06285  -0.04769
 121        9PY         0.05646   0.03049   0.01648  -0.08839   0.10705
 122        9PZ         0.03029   0.07079   0.02609   0.01039  -0.00424
 123       10PX         0.06303  -0.04638   0.26655   0.13643  -0.10004
 124       10PY         0.12213   0.05599   0.02857  -0.20853   0.25587
 125       10PZ         0.08476   0.17660   0.07125   0.03784  -0.02551
 126       11PX         0.03000  -0.01010   0.15194   0.08044  -0.05485
 127       11PY         0.06196   0.05824   0.01806  -0.10010   0.12031
 128       11PZ         0.03432   0.08381   0.03811   0.00870  -0.00635
                          36        37        38        39        40
                           O         O         O         O         O
     Eigenvalues --    -0.38670  -0.37870  -0.37175  -0.37046  -0.29419
   1 1   Si 1S          0.00000   0.00000   0.00055  -0.00000  -0.00139
   2        2S          0.00000   0.00000   0.00158  -0.00001  -0.00368
   3        3S         -0.00001  -0.00001  -0.00421   0.00004   0.00713
   4        4S         -0.00001  -0.00001  -0.00365   0.00003   0.02043
   5        5S          0.00009   0.00004   0.00026  -0.00004  -0.06380
   6        6S         -0.00020   0.00001   0.04739  -0.00030   0.05307
   7        7PX        -0.00507   0.02662   0.01247   0.02843   0.00207
   8        7PY        -0.00164   0.00938  -0.00373   0.01005   0.00696
   9        7PZ         0.00300  -0.01625   0.01776  -0.01758   0.00739
  10        8PX        -0.00852   0.04649   0.02195   0.04948   0.00366
  11        8PY        -0.00274   0.01638  -0.00606   0.01749   0.01270
  12        8PZ         0.00503  -0.02838   0.03156  -0.03060   0.01330
  13        9PX         0.01342  -0.06429  -0.03009  -0.07298  -0.00371
  14        9PY         0.00438  -0.02265   0.00723  -0.02578  -0.01967
  15        9PZ        -0.00795   0.03926  -0.04378   0.04510  -0.01738
  16       10PX        -0.00115  -0.08727  -0.04405  -0.06371  -0.01647
  17       10PY        -0.00087  -0.03075   0.01945  -0.02266  -0.02330
  18       10PZ         0.00100   0.05328  -0.05987   0.03964  -0.04033
  19       11PX        -0.01218  -0.02628  -0.00155  -0.00137   0.01525
  20       11PY        -0.00455  -0.00931  -0.00999  -0.00030   0.01529
  21       11PZ         0.00755   0.01608  -0.00842   0.00088   0.03375
  22 2   H  1S          0.00037  -0.00008  -0.01763  -0.00004   0.01571
  23        2S          0.00084  -0.00016  -0.03631  -0.00015   0.03214
  24        3S          0.00032  -0.00012  -0.04049   0.00016   0.01908
  25        4PX         0.00085  -0.00215   0.00050  -0.00334  -0.00212
  26        4PY         0.00040  -0.00078  -0.00446  -0.00120   0.00288
  27        4PZ        -0.00054   0.00131  -0.00170   0.00207  -0.00179
  28 3   H  1S          0.02466  -0.05859   0.02693  -0.08229   0.00160
  29        2S          0.06400  -0.12280   0.05256  -0.19199  -0.00840
  30        3S          0.04557  -0.06159   0.03126  -0.11909   0.01205
  31        4PX        -0.00318   0.00404  -0.00314   0.00698   0.00042
  32        4PY        -0.00361   0.00792  -0.00402   0.01285   0.00003
  33        4PZ         0.00714  -0.01165   0.00456  -0.01947  -0.00108
  34 4   H  1S         -0.02505   0.05873   0.02810   0.08203   0.00162
  35        2S         -0.06480   0.12309   0.05533   0.19154  -0.00833
  36        3S         -0.04585   0.06180   0.03302   0.11870   0.01204
  37        4PX        -0.00869   0.01463   0.00701   0.02422  -0.00103
  38        4PY        -0.00057  -0.00134  -0.00058  -0.00178  -0.00049
  39        4PZ         0.00011   0.00024  -0.00144   0.00034  -0.00019
  40 5   O  1S          0.00004  -0.00000  -0.00837   0.00007  -0.00838
  41        2S          0.00006  -0.00001  -0.01357   0.00011  -0.01298
  42        2PX        -0.11406  -0.00609   0.01329   0.15977  -0.00620
  43        2PY        -0.03981  -0.00205   0.04565   0.05577   0.04920
  44        2PZ         0.06938   0.00375   0.04453  -0.09804   0.01818
  45        3S         -0.00022   0.00001   0.03998  -0.00033   0.02424
  46        3PX        -0.16215  -0.01144   0.01878   0.22320  -0.00829
  47        3PY        -0.05660  -0.00388   0.06879   0.07787   0.07122
  48        3PZ         0.09864   0.00703   0.06544  -0.13699   0.02742
  49        4S         -0.00007   0.00008   0.07532  -0.00059   0.17197
  50        4PX        -0.17400  -0.00392   0.01170   0.25724  -0.03355
  51        4PY        -0.06070  -0.00120   0.08209   0.08972   0.13339
  52        4PZ         0.10578   0.00241   0.06079  -0.15769   0.02184
  53 6   P  1S         -0.00000  -0.00001  -0.00650   0.00005   0.00045
  54        2S          0.00000  -0.00003  -0.01803   0.00015   0.00126
  55        3S         -0.00000   0.00006   0.03935  -0.00033  -0.00296
  56        4S          0.00000   0.00010   0.07246  -0.00061  -0.00443
  57        5S         -0.00001  -0.00018  -0.14816   0.00128   0.02020
  58        6S          0.00004  -0.00016  -0.08712   0.00065  -0.05441
  59        7PX        -0.00076   0.00024   0.01437  -0.00143   0.00832
  60        7PY        -0.00021   0.00011   0.01160  -0.00056  -0.01467
  61        7PZ         0.00051  -0.00007   0.03023   0.00055   0.00519
  62        8PX        -0.00297   0.00117   0.02536  -0.00273   0.01302
  63        8PY        -0.00093   0.00046   0.02225  -0.00108  -0.02271
  64        8PZ         0.00190  -0.00058   0.05438   0.00109   0.00827
  65        9PX         0.01423  -0.00603  -0.03641   0.00470  -0.00888
  66        9PY         0.00484  -0.00219  -0.04128   0.00189   0.01397
  67        9PZ        -0.00879   0.00348  -0.08348  -0.00200  -0.00652
  68       10PX        -0.02310   0.01031  -0.06386   0.00080  -0.07844
  69       10PY        -0.00833   0.00357  -0.00932   0.00023   0.14566
  70       10PZ         0.01380  -0.00661  -0.10996   0.00073  -0.04472
  71       11PX        -0.05632   0.02299   0.02117   0.03749  -0.07861
  72       11PY        -0.01973   0.00810   0.03853   0.01294   0.17728
  73       11PZ         0.03437  -0.01390   0.05613  -0.02346  -0.02684
  74 7   O  1S         -0.00003  -0.00004  -0.02298   0.00019   0.00072
  75        2S         -0.00005  -0.00007  -0.03794   0.00032   0.00125
  76        2PX        -0.02370  -0.00706   0.04019  -0.01252  -0.13321
  77        2PY        -0.00827  -0.00236   0.09199  -0.00505   0.23426
  78        2PZ         0.01466   0.00458   0.11891   0.00643  -0.08353
  79        3S          0.00017   0.00025   0.13081  -0.00109  -0.00563
  80        3PX        -0.03372  -0.00753   0.05840  -0.01530  -0.18652
  81        3PY        -0.01176  -0.00248   0.13190  -0.00630   0.32990
  82        3PZ         0.02086   0.00498   0.17173   0.00758  -0.11587
  83        4S          0.00019   0.00016   0.06178  -0.00050   0.00244
  84        4PX        -0.03022  -0.01638   0.06328  -0.02375  -0.19990
  85        4PY        -0.01055  -0.00559   0.13516  -0.00930   0.34051
  86        4PZ         0.01869   0.01038   0.18173   0.01263  -0.13171
  87 8   Cl 1S          0.00107  -0.00015   0.00003  -0.00032  -0.00073
  88        2S          0.00301  -0.00042   0.00007  -0.00089  -0.00215
  89        3S         -0.00569   0.00070   0.00002   0.00168   0.00473
  90        4S         -0.01399   0.00233  -0.00105   0.00423   0.00725
  91        5S          0.03840  -0.00841   0.00174  -0.00988  -0.00569
  92        6S         -0.04725   0.01811   0.01240   0.00987  -0.05591
  93        7PX         0.05869  -0.01896  -0.04893  -0.01282   0.02800
  94        7PY        -0.03463  -0.15015  -0.04641   0.02525   0.03378
  95        7PZ        -0.12506   0.02186  -0.10193  -0.09190   0.00680
  96        8PX        -0.02329   0.00757   0.01879   0.00499  -0.01116
  97        8PY         0.01321   0.05707   0.01756  -0.00973  -0.01280
  98        8PZ         0.04767  -0.00843   0.03870   0.03489  -0.00265
  99        9PX        -0.05778   0.01842   0.05350   0.01368  -0.02827
 100        9PY         0.03889   0.17051   0.05337  -0.02773  -0.03982
 101        9PZ         0.14057  -0.02390   0.11645   0.10491  -0.00731
 102       10PX        -0.18340   0.06091   0.13514   0.03673  -0.09155
 103       10PY         0.09072   0.38934   0.11911  -0.07036  -0.08668
 104       10PZ         0.32782  -0.06072   0.26336   0.23783  -0.02177
 105       11PX        -0.08422   0.02803   0.06258   0.01689  -0.04437
 106       11PY         0.04941   0.21973   0.05773  -0.02463  -0.08139
 107       11PZ         0.17365  -0.02289   0.13672   0.13953   0.00799
 108 9   Cl 1S         -0.00106   0.00015   0.00004   0.00032  -0.00073
 109        2S         -0.00299   0.00042   0.00009   0.00089  -0.00215
 110        3S          0.00567  -0.00071  -0.00000  -0.00168   0.00473
 111        4S          0.01393  -0.00235  -0.00111  -0.00421   0.00725
 112        5S         -0.03827   0.00845   0.00186   0.00985  -0.00568
 113        6S          0.04723  -0.01805   0.01228  -0.01007  -0.05595
 114        7PX         0.10559  -0.09483  -0.04332   0.08337  -0.01973
 115        7PY         0.09211   0.11015  -0.04540   0.00001   0.01702
 116        7PZ         0.02467   0.04726  -0.10367   0.05112   0.03597
 117        8PX        -0.04056   0.03626   0.01640  -0.03168   0.00760
 118        8PY        -0.03555  -0.04167   0.01709   0.00017  -0.00622
 119        8PZ        -0.00866  -0.01820   0.03951  -0.01947  -0.01412
 120        9PX        -0.11595   0.10588   0.05016  -0.09500   0.02224
 121        9PY        -0.09967  -0.12680   0.05327  -0.00140  -0.02209
 122        9PZ        -0.03441  -0.05160   0.11659  -0.05787  -0.03818
 123       10PX        -0.28674   0.25316   0.10933  -0.21686   0.05376
 124       10PY        -0.25529  -0.27901   0.11264   0.00593  -0.03567
 125       10PZ        -0.04053  -0.13008   0.27467  -0.13385  -0.11055
 126       11PX        -0.14691   0.13142   0.06112  -0.12093   0.05966
 127       11PY        -0.13031  -0.16366   0.05840  -0.01253  -0.04485
 128       11PZ        -0.03246  -0.07403   0.13518  -0.07911  -0.05558
                          41        42        43        44        45
                           O         V         V         V         V
     Eigenvalues --    -0.29201  -0.13943  -0.05998  -0.02743  -0.00931
   1 1   Si 1S         -0.00000   0.00078  -0.01034  -0.00000  -0.00100
   2        2S         -0.00000   0.00217  -0.02856  -0.00000  -0.00269
   3        3S          0.00000  -0.00517   0.06704   0.00000   0.00546
   4        4S         -0.00000  -0.00796   0.11463   0.00001   0.01540
   5        5S          0.00001  -0.01404  -0.20445  -0.00002  -0.11518
   6        6S         -0.00007   0.11306  -0.44736   0.00009   0.31350
   7        7PX         0.00086  -0.00340   0.01732   0.01105   0.02039
   8        7PY         0.00031  -0.00417   0.02897   0.00390  -0.02080
   9        7PZ        -0.00054  -0.00798   0.04501  -0.00676   0.02127
  10        8PX         0.00147  -0.00592   0.02976   0.01865   0.03436
  11        8PY         0.00052  -0.00639   0.04955   0.00658  -0.03346
  12        8PZ        -0.00091  -0.01340   0.07720  -0.01140   0.03674
  13        9PX        -0.00101   0.00783  -0.03721  -0.01679  -0.03166
  14        9PY        -0.00036   0.00048  -0.05697  -0.00594   0.00929
  15        9PZ         0.00063   0.01314  -0.09367   0.01027  -0.04621
  16       10PX        -0.00882   0.01924  -0.11907  -0.12538  -0.22521
  17       10PY        -0.00312   0.05390  -0.22589  -0.04422   0.32761
  18       10PZ         0.00542   0.06260  -0.32478   0.07670  -0.17873
  19       11PX        -0.04223   0.03315  -0.13062  -0.24752  -0.47762
  20       11PY        -0.01477   0.02987  -0.50973  -0.08728   0.65382
  21       11PZ         0.02580   0.07186  -0.50727   0.15112  -0.40136
  22 2   H  1S          0.00001  -0.00964   0.01258   0.00002   0.05204
  23        2S          0.00002  -0.01924   0.00288   0.00007   0.18091
  24        3S          0.00016  -0.01605  -0.15116   0.00020   0.79019
  25        4PX         0.00026   0.00192  -0.00585  -0.00470  -0.01334
  26        4PY         0.00010   0.00118  -0.01443  -0.00165   0.02529
  27        4PZ        -0.00016   0.00383  -0.01788   0.00287  -0.00716
  28 3   H  1S          0.00364  -0.00304   0.01947   0.01593  -0.03364
  29        2S          0.00790  -0.00969   0.01211   0.06669  -0.12822
  30        3S          0.03301  -0.01067   0.11424   0.24123  -0.63276
  31        4PX        -0.00066   0.00052  -0.00592  -0.00603  -0.00908
  32        4PY        -0.00100   0.00114  -0.00920  -0.00280   0.01372
  33        4PZ         0.00098   0.00047  -0.01694   0.00596  -0.01648
  34 4   H  1S         -0.00365  -0.00305   0.01945  -0.01595  -0.03360
  35        2S         -0.00794  -0.00969   0.01204  -0.06673  -0.12793
  36        3S         -0.03307  -0.01104   0.11411  -0.24176  -0.63344
  37        4PX        -0.00150  -0.00035  -0.00753  -0.00821  -0.01689
  38        4PY         0.00024   0.00083  -0.00976  -0.00223   0.01091
  39        4PZ         0.00034   0.00099  -0.01596   0.00275  -0.01168
  40 5   O  1S          0.00000   0.01644  -0.03547  -0.00000  -0.00888
  41        2S          0.00000   0.02659  -0.05697  -0.00000  -0.01543
  42        2PX        -0.02868   0.06564  -0.04889  -0.05737   0.04281
  43        2PY        -0.01008  -0.09899  -0.01550  -0.02015  -0.03273
  44        2PZ         0.01751   0.05054  -0.08894   0.03501   0.05106
  45        3S         -0.00001  -0.07203   0.14828   0.00001   0.06991
  46        3PX        -0.03593   0.09575  -0.07720  -0.08512   0.05547
  47        3PY        -0.01263  -0.14424  -0.00307  -0.02989  -0.03680
  48        3PZ         0.02193   0.07383  -0.12814   0.05194   0.06942
  49        4S         -0.00004  -0.27731   0.63768   0.00001  -0.05622
  50        4PX        -0.06156   0.13552  -0.13134  -0.09011   0.12649
  51        4PY        -0.02163  -0.20354  -0.05694  -0.03169  -0.15046
  52        4PZ         0.03758   0.10479  -0.24768   0.05499   0.11999
  53 6   P  1S          0.00000   0.02179   0.00364   0.00000  -0.00793
  54        2S          0.00000   0.06053   0.01012   0.00000  -0.02210
  55        3S          0.00000  -0.13315  -0.02241  -0.00000   0.04931
  56        4S         -0.00000  -0.24897  -0.04197  -0.00000   0.09065
  57        5S          0.00002   0.46514   0.07857   0.00001  -0.18703
  58        6S         -0.00004   0.92368   0.34765   0.00005  -0.31430
  59        7PX        -0.01323   0.02410   0.02469  -0.08631   0.01834
  60        7PY        -0.00464   0.00321  -0.04114  -0.03030   0.02374
  61        7PZ         0.00808   0.04131   0.01675   0.05271   0.04367
  62        8PX        -0.02118   0.04043   0.04058  -0.14198   0.02904
  63        8PY        -0.00743   0.00454  -0.06653  -0.04984   0.03523
  64        8PZ         0.01293   0.06883   0.02816   0.08670   0.06780
  65        9PX         0.01812  -0.04794  -0.04628   0.16466  -0.02767
  66        9PY         0.00635   0.00053   0.06874   0.05780  -0.01406
  67        9PZ        -0.01106  -0.07821  -0.03620  -0.10054  -0.05340
  68       10PX         0.09833  -0.17305  -0.19498   0.69532  -0.16337
  69       10PY         0.03449  -0.06493   0.34544   0.24406  -0.31813
  70       10PZ        -0.06002  -0.32071  -0.12051  -0.42460  -0.45036
  71       11PX         0.14789  -0.05234  -0.04130   0.37951  -0.11356
  72       11PY         0.05189   0.01008   0.01824   0.13317  -0.33739
  73       11PZ        -0.09028  -0.08001  -0.05675  -0.23186  -0.38044
  74 7   O  1S         -0.00000   0.00358  -0.00091  -0.00000  -0.02259
  75        2S         -0.00000   0.00604  -0.00180  -0.00001  -0.03532
  76        2PX         0.23126   0.04104   0.03819  -0.09723  -0.05028
  77        2PY         0.08116   0.02677  -0.05473  -0.03414  -0.06447
  78        2PZ        -0.14118   0.08262   0.03103   0.05935  -0.11944
  79        3S         -0.00000  -0.02230   0.01218   0.00001   0.07064
  80        3PX         0.32338   0.05731   0.05271  -0.13073  -0.07194
  81        3PY         0.11349   0.03919  -0.07853  -0.04591  -0.09489
  82        3PZ        -0.19742   0.11639   0.04112   0.07979  -0.17244
  83        4S          0.00001  -0.03853  -0.03149   0.00009   0.51692
  84        4PX         0.34797   0.06269   0.07141  -0.18660  -0.14559
  85        4PY         0.12213   0.03457  -0.07754  -0.06553  -0.17842
  86        4PZ        -0.21244   0.12256   0.07226   0.11388  -0.34104
  87 8   Cl 1S          0.00126  -0.00625  -0.00106   0.00759  -0.00036
  88        2S          0.00370  -0.01809  -0.00313   0.02207  -0.00113
  89        3S         -0.00841   0.03842   0.00708  -0.04764   0.00315
  90        4S         -0.01141   0.06911   0.01021  -0.08243   0.00103
  91        5S          0.00428  -0.10603  -0.00786   0.12051   0.01360
  92        6S          0.11615  -0.27209  -0.07160   0.37794  -0.09188
  93        7PX        -0.04296   0.11782   0.02565  -0.07930   0.00211
  94        7PY        -0.00631  -0.00690   0.03239   0.01704  -0.01796
  95        7PZ        -0.03639  -0.02184  -0.00235  -0.02021  -0.04228
  96        8PX         0.01733  -0.04532  -0.01014   0.03107  -0.00163
  97        8PY         0.00250   0.00268  -0.01217  -0.00651   0.00645
  98        8PZ         0.01381   0.00831   0.00096   0.00718   0.01601
  99        9PX         0.04186  -0.13689  -0.02862   0.09153   0.00403
 100        9PY         0.00649   0.00794  -0.04144  -0.02109   0.02578
 101        9PZ         0.04267   0.02636   0.00238   0.02949   0.05397
 102       10PX         0.14721  -0.34575  -0.08240   0.25143  -0.03461
 103       10PY         0.02175   0.02032  -0.08486  -0.05055   0.03408
 104       10PZ         0.09629   0.06071   0.00952   0.03633   0.11677
 105       11PX         0.07740  -0.34048  -0.11367   0.36938  -0.00013
 106       11PY        -0.01495   0.01625  -0.07972  -0.02138   0.13466
 107       11PZ         0.05764   0.03166  -0.01367   0.09927   0.12996
 108 9   Cl 1S         -0.00126  -0.00625  -0.00106  -0.00759  -0.00034
 109        2S         -0.00370  -0.01809  -0.00313  -0.02207  -0.00109
 110        3S          0.00841   0.03842   0.00708   0.04764   0.00307
 111        4S          0.01141   0.06911   0.01021   0.08242   0.00087
 112        5S         -0.00427  -0.10602  -0.00789  -0.12048   0.01395
 113        6S         -0.11613  -0.27211  -0.07150  -0.37794  -0.09163
 114        7PX         0.01228  -0.05426  -0.02577  -0.00223  -0.02678
 115        7PY        -0.00447  -0.06733   0.01432  -0.04567  -0.02798
 116        7PZ         0.05512   0.08323   0.02902   0.06996  -0.02458
 117        8PX        -0.00426   0.02079   0.00991   0.00156   0.01059
 118        8PY         0.00209   0.02590  -0.00513   0.01797   0.01070
 119        8PZ        -0.02178  -0.03206  -0.01128  -0.02709   0.00854
 120        9PX        -0.01769   0.06389   0.03103  -0.00312   0.03057
 121        9PY         0.00201   0.07845  -0.02046   0.05213   0.03494
 122        9PZ        -0.05742  -0.09623  -0.03401  -0.08343   0.03769
 123       10PX        -0.01883   0.15645   0.07535   0.03138   0.09101
 124       10PY         0.02335   0.19670  -0.02949   0.14985   0.07790
 125       10PZ        -0.17464  -0.24593  -0.08676  -0.20892   0.03994
 126       11PX        -0.02802   0.13287   0.06460   0.03331   0.04269
 127       11PY         0.03233   0.18245  -0.01702   0.16283   0.14926
 128       11PZ        -0.08779  -0.25739  -0.12234  -0.34512   0.10357
                          46        47        48        49        50
                           V         V         V         V         V
     Eigenvalues --     0.01428   0.02288   0.02959   0.05438   0.10498
   1 1   Si 1S         -0.00625   0.01884  -0.00005  -0.00613  -0.00129
   2        2S         -0.01736   0.05213  -0.00013  -0.01695  -0.00337
   3        3S          0.04166  -0.12341   0.00030   0.03992   0.00629
   4        4S          0.06633  -0.20951   0.00055   0.06958   0.02153
   5        5S         -0.08799   0.40606  -0.00130  -0.13729  -0.08095
   6        6S         -0.92255   1.84486  -0.00360  -0.68679   0.00884
   7        7PX        -0.00361   0.00899  -0.03672   0.01216  -0.02879
   8        7PY        -0.02452  -0.00291  -0.01291  -0.03037   0.05967
   9        7PZ        -0.01987   0.01330   0.02248   0.00237  -0.01281
  10        8PX        -0.00609   0.01491  -0.06303   0.02078  -0.04525
  11        8PY        -0.04106  -0.00739  -0.02215  -0.05214   0.09356
  12        8PZ        -0.03334   0.02058   0.03860   0.00391  -0.02024
  13        9PX         0.00794  -0.01386   0.06911  -0.02203   0.02895
  14        9PY         0.03949   0.02543   0.02423   0.06292  -0.05871
  15        9PZ         0.03543  -0.00856  -0.04237   0.00019   0.01362
  16       10PX         0.02964  -0.10154   0.37374  -0.12587   0.44000
  17       10PY         0.27483  -0.04090   0.13164   0.28352  -0.91973
  18       10PZ         0.20519  -0.19220  -0.22869  -0.04176   0.19113
  19       11PX         0.14359  -0.32729   1.31218  -0.65977  -0.46881
  20       11PY         0.68002   0.53033   0.45947   1.30151   1.28476
  21       11PZ         0.62067  -0.23927  -0.80273  -0.32983  -0.02896
  22 2   H  1S          0.06069  -0.01714  -0.00011   0.07523   0.01748
  23        2S          0.17649   0.02185  -0.00048   0.13062   0.04671
  24        3S          0.92679  -0.36744  -0.00165   1.68043  -0.03868
  25        4PX         0.00035  -0.00833   0.02890  -0.00706   0.00058
  26        4PY         0.01534   0.01474   0.01012   0.01301   0.00712
  27        4PZ         0.00929  -0.00532  -0.01769  -0.00410   0.00503
  28 3   H  1S          0.02543  -0.05694  -0.06773  -0.00737   0.01144
  29        2S          0.03873  -0.07095  -0.22373  -0.08212   0.01336
  30        3S          0.48560  -1.11616  -1.22532  -0.18386   0.18138
  31        4PX         0.00430  -0.00816   0.02684  -0.01546  -0.00185
  32        4PY         0.01516   0.00130   0.00455   0.02067  -0.00109
  33        4PZ         0.00913   0.00264  -0.01998  -0.01255  -0.00403
  34 4   H  1S          0.02570  -0.05650   0.06799  -0.00731   0.01151
  35        2S          0.03966  -0.06959   0.22376  -0.08189   0.01380
  36        3S          0.49040  -1.10797   1.23127  -0.18219   0.18090
  37        4PX        -0.00100   0.00444   0.02738  -0.01481  -0.00210
  38        4PY         0.01330   0.00580   0.01451   0.02094  -0.00119
  39        4PZ         0.01240  -0.00505  -0.01326  -0.01293  -0.00384
  40 5   O  1S         -0.01763  -0.00692   0.00005   0.00484  -0.00340
  41        2S         -0.02891  -0.01078   0.00008   0.00810  -0.00596
  42        2PX        -0.02316  -0.00180  -0.07605   0.00605   0.00368
  43        2PY         0.12277   0.06778  -0.02723  -0.09459  -0.02113
  44        2PZ         0.03299   0.03656   0.04643  -0.04459  -0.00606
  45        3S          0.08585   0.01828  -0.00019  -0.02626   0.02750
  46        3PX        -0.03876  -0.00467  -0.10037   0.00507  -0.00117
  47        3PY         0.16090   0.09044  -0.03596  -0.12338  -0.02463
  48        3PZ         0.02948   0.04507   0.06136  -0.06277  -0.01599
  49        4S          0.26041   0.18370  -0.00106  -0.05321   0.01607
  50        4PX        -0.06005  -0.03030  -0.17767   0.04540   0.04537
  51        4PY         0.43304   0.24152  -0.06410  -0.30645  -0.10898
  52        4PZ         0.15136   0.09044   0.10828  -0.10228   0.01178
  53 6   P  1S         -0.00741  -0.00006   0.00001   0.00455  -0.00162
  54        2S         -0.02047  -0.00025   0.00003   0.01283  -0.00459
  55        3S          0.04404   0.00126  -0.00006  -0.03000   0.01094
  56        4S          0.09181  -0.00203  -0.00013  -0.04675   0.01582
  57        5S         -0.19218   0.03491   0.00025   0.04781  -0.02410
  58        6S         -0.38109  -0.23396   0.00093   0.26209  -0.09449
  59        7PX         0.02731   0.00874  -0.01818  -0.03400  -0.00566
  60        7PY        -0.06259  -0.04697  -0.00612   0.00594   0.02880
  61        7PZ         0.00884  -0.01252   0.01116  -0.05217   0.00726
  62        8PX         0.04417   0.01433  -0.02965  -0.05410  -0.00801
  63        8PY        -0.10148  -0.07561  -0.00997   0.00867   0.04619
  64        8PZ         0.01418  -0.01973   0.01819  -0.08346   0.01339
  65        9PX        -0.04774  -0.01622   0.03346   0.05315   0.00079
  66        9PY         0.10951   0.07741   0.01127  -0.00241  -0.04806
  67        9PZ        -0.01542   0.01764  -0.02051   0.08551  -0.02631
  68       10PX        -0.24407  -0.08071   0.16294   0.34062   0.08835
  69       10PY         0.57930   0.45652   0.05476  -0.10250  -0.30758
  70       10PZ        -0.06765   0.12879  -0.10012   0.49783  -0.03183
  71       11PX        -0.25991   0.02485  -0.08890   0.24705  -0.18631
  72       11PY         0.66622   0.42990  -0.03458   0.21957   0.48627
  73       11PZ        -0.04202   0.28852   0.05377   0.53209  -0.02652
  74 7   O  1S          0.00030   0.01118  -0.00006   0.02579  -0.00309
  75        2S          0.00029   0.01758  -0.00009   0.04118  -0.00532
  76        2PX         0.03887   0.03799  -0.01343   0.02102  -0.00811
  77        2PY        -0.08584  -0.01636  -0.00449   0.07813  -0.02185
  78        2PZ         0.01438   0.05291   0.00777   0.07938  -0.02584
  79        3S          0.00384  -0.03792   0.00020  -0.10228   0.02155
  80        3PX         0.04943   0.05306  -0.02146   0.03466  -0.01413
  81        3PY        -0.10664  -0.01387  -0.00728   0.10913  -0.02502
  82        3PZ         0.01977   0.07908   0.01250   0.11955  -0.03753
  83        4S         -0.04022  -0.25106   0.00126  -0.51573   0.00202
  84        4PX         0.09405   0.09291  -0.01299   0.07126  -0.00999
  85        4PY        -0.19724  -0.02859  -0.00406   0.21347  -0.07362
  86        4PZ         0.04070   0.13585   0.00678   0.23942  -0.05861
  87 8   Cl 1S         -0.00383  -0.00005   0.00130  -0.00147  -0.00366
  88        2S         -0.01107  -0.00017   0.00380  -0.00409  -0.01064
  89        3S          0.02350   0.00055  -0.00831   0.00721   0.02297
  90        4S          0.04329  -0.00015  -0.01389   0.02256   0.04064
  91        5S         -0.07161   0.00305   0.01985  -0.06587  -0.07178
  92        6S         -0.19271  -0.00433   0.05483   0.04099  -0.19587
  93        7PX         0.00740   0.01340  -0.01783  -0.00766  -0.01850
  94        7PY         0.02302   0.03958   0.00021  -0.00603  -0.00212
  95        7PZ        -0.02082   0.01032  -0.01366   0.01148  -0.02107
  96        8PX        -0.00311  -0.00521   0.00681   0.00392   0.00852
  97        8PY        -0.00846  -0.01503   0.00018   0.00198   0.00017
  98        8PZ         0.00813  -0.00377   0.00551  -0.00389   0.00823
  99        9PX        -0.00691  -0.01610   0.02233   0.00204   0.01156
 100        9PY        -0.03166  -0.05071  -0.00231   0.01023   0.00830
 101        9PZ         0.02466  -0.01451   0.01495  -0.01854   0.02596
 102       10PX        -0.03216  -0.04177   0.05093   0.05023   0.11447
 103       10PY        -0.05284  -0.11262   0.00979   0.00539  -0.02400
 104       10PZ         0.07031  -0.02255   0.05205  -0.01390   0.07021
 105       11PX        -0.09361  -0.00887   0.08014   0.02088  -0.18436
 106       11PY        -0.11081  -0.09071  -0.05214   0.05526   0.09477
 107       11PZ         0.01283  -0.05716  -0.03259  -0.08576   0.05164
 108 9   Cl 1S         -0.00383  -0.00005  -0.00129  -0.00146  -0.00367
 109        2S         -0.01109  -0.00017  -0.00376  -0.00405  -0.01065
 110        3S          0.02354   0.00056   0.00822   0.00714   0.02299
 111        4S          0.04335  -0.00015   0.01374   0.02240   0.04069
 112        5S         -0.07168   0.00308  -0.01961  -0.06552  -0.07187
 113        6S         -0.19299  -0.00439  -0.05400   0.04147  -0.19612
 114        7PX        -0.03031  -0.01459   0.00552   0.01475  -0.00997
 115        7PY         0.00977   0.02975  -0.00493   0.00196   0.00085
 116        7PZ         0.00229   0.02767   0.02118  -0.00209  -0.02631
 117        8PX         0.01166   0.00571  -0.00223  -0.00541   0.00378
 118        8PY        -0.00326  -0.01119   0.00158  -0.00134  -0.00149
 119        8PZ        -0.00093  -0.01053  -0.00831   0.00176   0.01115
 120        9PX         0.03734   0.01729  -0.00608  -0.02061   0.01340
 121        9PY        -0.01611  -0.03897   0.00852   0.00214   0.00898
 122        9PZ        -0.00245  -0.03521  -0.02485  -0.00485   0.02487
 123       10PX         0.09307   0.04834  -0.02174  -0.03062   0.03009
 124       10PY        -0.00886  -0.08100   0.00158  -0.02339  -0.05356
 125       10PZ        -0.00649  -0.07833  -0.07005   0.03505   0.12197
 126       11PX         0.09418  -0.00107   0.02905  -0.10296   0.05956
 127       11PY        -0.04453  -0.08784   0.09143   0.01165   0.18040
 128       11PZ        -0.10188  -0.06244  -0.03335  -0.01007  -0.09765
                          51        52        53        54        55
                           V         V         V         V         V
     Eigenvalues --     0.11098   0.15280   0.15459   0.17866   0.20525
   1 1   Si 1S         -0.00000   0.00002  -0.00739   0.00170  -0.00044
   2        2S         -0.00000   0.00005  -0.02033   0.00470  -0.00065
   3        3S          0.00000  -0.00011   0.04708  -0.01107  -0.00386
   4        4S         -0.00000  -0.00024   0.09000  -0.01956   0.02925
   5        5S          0.00013   0.00045  -0.12736  -0.04440  -0.47615
   6        6S         -0.00046   0.00185  -0.68197   0.52867   1.21462
   7        7PX        -0.05372  -0.02604   0.02959   0.01088  -0.00444
   8        7PY        -0.01886  -0.00925   0.02558  -0.00781  -0.00238
   9        7PZ         0.03283   0.01572   0.06327   0.01337  -0.00858
  10        8PX        -0.08418  -0.04057   0.04654   0.01641  -0.00838
  11        8PY        -0.02955  -0.01442   0.04074  -0.01036   0.00065
  12        8PZ         0.05144   0.02450   0.09980   0.02100  -0.01325
  13        9PX         0.05683   0.02754  -0.03524  -0.01008   0.02604
  14        9PY         0.01997   0.00980  -0.02574  -0.00203  -0.04500
  15        9PZ        -0.03474  -0.01663  -0.07260  -0.01779   0.01665
  16       10PX         0.80055   0.42070  -0.44015  -0.17441  -0.01076
  17       10PY         0.28092   0.14941  -0.43425   0.20528   0.23636
  18       10PZ        -0.48916  -0.25411  -0.97229  -0.16792   0.11751
  19       11PX        -0.72934  -0.62388   0.33524   0.40515  -0.09747
  20       11PY        -0.25579  -0.22008   1.02394  -0.62605   0.23056
  21       11PZ         0.44562   0.37652   1.14230   0.29979  -0.02392
  22 2   H  1S          0.00003  -0.00001   0.04451  -0.04704  -0.03511
  23        2S          0.00024   0.00012   0.10455  -0.34021  -0.24447
  24        3S         -0.00065  -0.00012   0.65959  -0.06468   0.14768
  25        4PX         0.00100  -0.00950   0.00200   0.00767  -0.00082
  26        4PY         0.00038  -0.00331  -0.00530  -0.01871  -0.00083
  27        4PZ        -0.00062   0.00579   0.00025   0.00170  -0.00184
  28 3   H  1S          0.00566  -0.00538   0.04983  -0.00502  -0.02760
  29        2S          0.07029   0.07025   0.23521  -0.02912  -0.41791
  30        3S         -0.33646  -0.26201   0.02290  -0.05785   0.29257
  31        4PX        -0.00339  -0.00120  -0.00522  -0.00112   0.00400
  32        4PY        -0.00377   0.01361  -0.00720  -0.01255  -0.00594
  33        4PZ         0.00852   0.01557   0.00088   0.00042  -0.02436
  34 4   H  1S         -0.00566   0.00512   0.04982  -0.00494  -0.02761
  35        2S         -0.07022  -0.07125   0.23457  -0.02915  -0.41710
  36        3S          0.33722   0.25944   0.02444  -0.05588   0.28973
  37        4PX        -0.00986  -0.00675   0.00579   0.00662  -0.01840
  38        4PY        -0.00090  -0.01635  -0.00336  -0.00985  -0.01383
  39        4PZ        -0.00039  -0.01071  -0.00593  -0.00437  -0.01060
  40 5   O  1S         -0.00000   0.00002  -0.00971   0.00009   0.01005
  41        2S         -0.00000   0.00003  -0.01630   0.00040   0.01749
  42        2PX         0.00062  -0.03703  -0.03415   0.02154   0.00142
  43        2PY         0.00020  -0.01299  -0.06365  -0.03954   0.02709
  44        2PZ        -0.00038   0.02295  -0.09226   0.01264   0.01785
  45        3S          0.00001  -0.00009   0.05556  -0.00281  -0.07140
  46        3PX        -0.00953  -0.05322  -0.04118   0.02380   0.00086
  47        3PY        -0.00338  -0.01866  -0.09663  -0.05920   0.03968
  48        3PZ         0.00583   0.03293  -0.12265   0.00512   0.02413
  49        4S         -0.00003  -0.00029   0.09898   0.08354  -0.06672
  50        4PX         0.04901  -0.08928  -0.13741   0.10774   0.03319
  51        4PY         0.01713  -0.03139  -0.17356  -0.17312   0.02472
  52        4PZ        -0.02997   0.05579  -0.32407   0.07688   0.06843
  53 6   P  1S         -0.00000   0.00000   0.00030   0.00055  -0.01002
  54        2S         -0.00000   0.00000   0.00053   0.00196  -0.02739
  55        3S          0.00000  -0.00003   0.00166  -0.00808   0.05640
  56        4S          0.00001   0.00006  -0.01565   0.00866   0.14035
  57        5S         -0.00002  -0.00059   0.11782  -0.12190  -0.42162
  58        6S          0.00001   0.00245  -0.57848   0.67593  -0.20695
  59        7PX        -0.02487   0.03479   0.00343  -0.02618   0.01885
  60        7PY        -0.00872   0.01220   0.01960   0.04114   0.01578
  61        7PZ         0.01521  -0.02138   0.01665  -0.01913   0.03990
  62        8PX        -0.03937   0.05227   0.00561  -0.04014   0.02842
  63        8PY        -0.01381   0.01831   0.03138   0.06192   0.02022
  64        8PZ         0.02408  -0.03213   0.02688  -0.02998   0.05809
  65        9PX         0.03881  -0.03217  -0.00634   0.03094  -0.02058
  66        9PY         0.01362  -0.01121  -0.03508  -0.03906   0.01455
  67        9PZ        -0.02372   0.01987  -0.03033   0.02808  -0.02524
  68       10PX         0.25397  -0.50708  -0.04906   0.36139  -0.25174
  69       10PY         0.08909  -0.17808  -0.19549  -0.61264  -0.38675
  70       10PZ        -0.15540   0.31129  -0.18933   0.23851  -0.63432
  71       11PX        -0.47449   1.50260   0.15989  -0.79727   0.50036
  72       11PY        -0.16681   0.52757   0.35469   1.10247   0.93504
  73       11PZ         0.28972  -0.92010   0.45498  -0.66822   1.35533
  74 7   O  1S         -0.00001   0.00000   0.00271  -0.00040   0.01473
  75        2S         -0.00001   0.00001   0.00419  -0.00069   0.02380
  76        2PX         0.00642  -0.04599  -0.01322   0.02361  -0.02645
  77        2PY         0.00225  -0.01608  -0.01924  -0.02646  -0.06300
  78        2PZ        -0.00397   0.02830  -0.03240   0.02335  -0.07949
  79        3S          0.00003  -0.00004  -0.00964   0.00381  -0.06995
  80        3PX         0.00380  -0.04970  -0.01711   0.02692  -0.03528
  81        3PY         0.00133  -0.01736  -0.02710  -0.03097  -0.09253
  82        3PZ        -0.00239   0.03065  -0.04328   0.02619  -0.11092
  83        4S          0.00013   0.00007  -0.07837  -0.00661  -0.38520
  84        4PX         0.03773  -0.15624  -0.04828   0.08464  -0.08927
  85        4PY         0.01322  -0.05468  -0.06014  -0.07407  -0.15341
  86        4PZ        -0.02318   0.09618  -0.11253   0.09569  -0.23425
  87 8   Cl 1S         -0.00312   0.00348  -0.00031  -0.00259  -0.00146
  88        2S         -0.00915   0.01028  -0.00085  -0.00758  -0.00379
  89        3S          0.02039  -0.02349   0.00137   0.01693   0.00447
  90        4S          0.03208  -0.03373   0.00540   0.02673   0.03094
  91        5S         -0.04897   0.03513  -0.01966  -0.03470  -0.10601
  92        6S         -0.25022   0.53827   0.05954  -0.34040   0.23278
  93        7PX        -0.03292   0.02799   0.00294  -0.02182   0.01797
  94        7PY        -0.01805   0.00271  -0.00252   0.04559   0.01487
  95        7PZ         0.00184  -0.02413   0.02124  -0.00925   0.01947
  96        8PX         0.01438  -0.01174  -0.00081   0.00932  -0.00828
  97        8PY         0.00706  -0.00148   0.00064  -0.01932  -0.00690
  98        8PZ        -0.00107   0.00934  -0.00900   0.00392  -0.00863
  99        9PX         0.02741  -0.02808  -0.00677   0.02091  -0.01144
 100        9PY         0.02251   0.00025   0.00589  -0.04508  -0.00989
 101        9PZ         0.00071   0.03092  -0.02075   0.00910  -0.01652
 102       10PX         0.16971  -0.11281   0.00604   0.09796  -0.12066
 103       10PY         0.05778  -0.02920  -0.00559  -0.22116  -0.09868
 104       10PZ        -0.02144   0.07726  -0.10363   0.04639  -0.10986
 105       11PX        -0.17768   0.12791   0.02891  -0.19327   0.16918
 106       11PY         0.07570   0.01705   0.04115   0.01823   0.02270
 107       11PZ         0.01856   0.14644   0.06271   0.01389  -0.05014
 108 9   Cl 1S          0.00312  -0.00349  -0.00034  -0.00258  -0.00146
 109        2S          0.00915  -0.01029  -0.00092  -0.00756  -0.00381
 110        3S         -0.02039   0.02351   0.00152   0.01688   0.00451
 111        4S         -0.03209   0.03375   0.00563   0.02665   0.03097
 112        5S          0.04902  -0.03509  -0.01997  -0.03460  -0.10595
 113        6S          0.25013  -0.53936   0.05644  -0.33942   0.23197
 114        7PX        -0.02100   0.03024   0.01768  -0.02163   0.00294
 115        7PY        -0.00092   0.01784   0.00270   0.04558   0.00970
 116        7PZ         0.03113  -0.01161   0.01224  -0.00932   0.02868
 117        8PX         0.00900  -0.01220  -0.00743   0.00914  -0.00105
 118        8PY         0.00117  -0.00696  -0.00170  -0.01936  -0.00440
 119        8PZ        -0.01323   0.00537  -0.00494   0.00401  -0.01306
 120        9PX         0.01916  -0.03444  -0.01760   0.02157  -0.00505
 121        9PY        -0.00611  -0.02234   0.00205  -0.04478  -0.00775
 122        9PZ        -0.02918   0.00743  -0.01420   0.00866  -0.02047
 123       10PX         0.10151  -0.11389  -0.08449   0.10879  -0.00324
 124       10PY         0.03751  -0.05068  -0.03753  -0.21699  -0.05794
 125       10PZ        -0.14440   0.06206  -0.04812   0.03949  -0.18168
 126       11PX        -0.03925  -0.06882   0.02155   0.06803  -0.10779
 127       11PY        -0.15170   0.00375   0.03884   0.10948  -0.07386
 128       11PZ         0.11405  -0.18329   0.06548  -0.14486   0.11896
                          56        57        58        59        60
                           V         V         V         V         V
     Eigenvalues --     0.22940   0.24425   0.25286   0.27920   0.30076
   1 1   Si 1S          0.00441   0.00000   0.00345   0.00242  -0.00001
   2        2S          0.01208   0.00000   0.00910   0.00636  -0.00003
   3        3S         -0.02753  -0.00000  -0.01732  -0.01189   0.00005
   4        4S         -0.05628  -0.00004  -0.06090  -0.04349   0.00018
   5        5S          0.10793   0.00012   0.47508   0.32066  -0.00125
   6        6S         -0.29771  -0.00162  -0.28794  -0.69172   0.00323
   7        7PX         0.01261  -0.02058  -0.01180  -0.00870  -0.01212
   8        7PY        -0.00357  -0.00724  -0.02350  -0.00153  -0.00434
   9        7PZ         0.01850   0.01271  -0.03274  -0.01490   0.00750
  10        8PX         0.02006  -0.03295  -0.01776  -0.01476  -0.01878
  11        8PY        -0.00940  -0.01160  -0.03680  -0.00334  -0.00672
  12        8PZ         0.02730   0.02034  -0.05010  -0.02571   0.01163
  13        9PX        -0.00922   0.01726  -0.00580   0.00797  -0.00242
  14        9PY         0.04285   0.00608   0.02610   0.02726  -0.00085
  15        9PZ         0.00955  -0.01059   0.00545   0.02858   0.00139
  16       10PX        -0.23423   0.35136   0.28736   0.16080   0.30833
  17       10PY        -0.12464   0.12364   0.42958  -0.08702   0.11003
  18       10PZ        -0.45327  -0.21742   0.71584   0.20890  -0.19008
  19       11PX         0.16226  -0.41473  -0.35102  -0.31197  -0.36077
  20       11PY         0.06141  -0.14883  -0.17726   0.47669  -0.12780
  21       11PZ         0.30034   0.25710  -0.67412  -0.23005   0.22035
  22 2   H  1S         -0.02785  -0.00004   0.03062  -0.00769   0.00011
  23        2S         -0.17787   0.00062   0.21083  -0.29076   0.00125
  24        3S          0.16187  -0.00283   0.16586   0.93710  -0.00192
  25        4PX        -0.00483   0.01244   0.00585   0.01474  -0.00250
  26        4PY        -0.00274   0.00448   0.00114  -0.01970  -0.00082
  27        4PZ        -0.00943  -0.00767   0.01021   0.01253   0.00141
  28 3   H  1S         -0.04850  -0.00624   0.05274   0.03530  -0.03674
  29        2S         -0.41687  -0.29137   0.56504   0.36665  -0.21897
  30        3S          0.35793   0.47958  -0.55822  -0.30386   0.07645
  31        4PX        -0.00335   0.00804   0.00280  -0.00418   0.01292
  32        4PY         0.00554  -0.00575  -0.01261  -0.01964   0.04928
  33        4PZ        -0.01130  -0.01856   0.02616   0.01278   0.00665
  34 4   H  1S         -0.04864   0.00592   0.05273   0.03552   0.03657
  35        2S         -0.41793   0.28834   0.56504   0.37009   0.21701
  36        3S          0.35829  -0.47416  -0.55822  -0.30907  -0.07767
  37        4PX        -0.01082   0.01498   0.02636   0.02128   0.02192
  38        4PY         0.00302   0.01403  -0.00424  -0.01074  -0.03689
  39        4PZ        -0.00673   0.00431   0.01172  -0.00274  -0.02800
  40 5   O  1S          0.00414   0.00001  -0.00596   0.00321   0.00001
  41        2S          0.00639   0.00001  -0.01073   0.00406   0.00002
  42        2PX        -0.01800   0.03528   0.03169  -0.02826  -0.03390
  43        2PY         0.02876   0.01236  -0.01572   0.02732  -0.01198
  44        2PZ        -0.01309  -0.02162   0.04265  -0.03043   0.02068
  45        3S         -0.01060  -0.00012   0.05480   0.01322  -0.00004
  46        3PX        -0.02574   0.06765   0.04364  -0.05175  -0.07188
  47        3PY         0.06205   0.02369  -0.02751   0.06081  -0.02543
  48        3PZ        -0.00673  -0.04138   0.05523  -0.04951   0.04391
  49        4S         -0.23739   0.00023   0.07632  -0.23230  -0.00069
  50        4PX        -0.03386   0.00560   0.10882  -0.01185   0.02104
  51        4PY        -0.11483   0.00197  -0.00208  -0.05438   0.00717
  52        4PZ        -0.12149  -0.00404   0.17696  -0.05073  -0.01296
  53 6   P  1S         -0.00805   0.00001   0.00196  -0.00133  -0.00003
  54        2S         -0.02145   0.00002   0.00494  -0.00402  -0.00009
  55        3S          0.03913  -0.00004  -0.00647   0.01189   0.00015
  56        4S          0.13449  -0.00003  -0.04250   0.00432   0.00064
  57        5S         -0.62844   0.00005   0.14295  -0.01749  -0.00285
  58        6S          1.87245  -0.00073   0.41086   0.32280   0.00450
  59        7PX        -0.00104   0.00830   0.00308   0.01121   0.00458
  60        7PY        -0.01484   0.00289   0.02255   0.00038   0.00158
  61        7PZ        -0.01025  -0.00517   0.01794   0.01858  -0.00285
  62        8PX        -0.00350   0.01820   0.00324   0.01806   0.00840
  63        8PY        -0.02271   0.00635   0.03519   0.00137   0.00289
  64        8PZ        -0.01881  -0.01127   0.02539   0.03035  -0.00522
  65        9PX         0.01529  -0.05880   0.00959  -0.02202  -0.01716
  66        9PY         0.01712  -0.02058  -0.03354  -0.00487  -0.00591
  67        9PZ         0.03491   0.03600  -0.00315  -0.03884   0.01065
  68       10PX        -0.07897   0.23033  -0.12182  -0.16102  -0.00196
  69       10PY         0.26057   0.08114  -0.29090   0.02635  -0.00048
  70       10PZ         0.02060  -0.13893  -0.36801  -0.24849   0.00160
  71       11PX        -0.02520  -0.05153  -0.09417   0.70550   0.09321
  72       11PY        -0.37760  -0.01902   0.51791  -0.55545   0.03263
  73       11PZ        -0.25852   0.02922   0.14279   0.83466  -0.05664
  74 7   O  1S         -0.00202  -0.00001  -0.00105   0.00151   0.00003
  75        2S         -0.00458  -0.00001  -0.00194   0.00148   0.00005
  76        2PX        -0.00839   0.02944  -0.00845  -0.03950   0.03488
  77        2PY         0.01578   0.01039  -0.02146   0.02641   0.01228
  78        2PZ        -0.00461  -0.01779  -0.02642  -0.04948  -0.02131
  79        3S          0.04371   0.00001   0.00748   0.01654  -0.00012
  80        3PX        -0.01618   0.04751  -0.01649  -0.06062   0.06504
  81        3PY         0.01297   0.01675  -0.02699   0.03755   0.02288
  82        3PZ        -0.01893  -0.02873  -0.04295  -0.07768  -0.03975
  83        4S         -0.18115   0.00047  -0.02568  -0.21013  -0.00087
  84        4PX         0.03530   0.02847  -0.02157  -0.06808   0.00508
  85        4PY         0.11435   0.01018  -0.09468   0.06168   0.00199
  86        4PZ         0.12363  -0.01692  -0.08991  -0.07590  -0.00267
  87 8   Cl 1S         -0.00487   0.00421   0.00191   0.00087   0.00084
  88        2S         -0.01430   0.01219   0.00505   0.00244   0.00233
  89        3S          0.03212  -0.02611  -0.00666  -0.00469  -0.00418
  90        4S          0.04994  -0.04849  -0.03854  -0.01220  -0.01291
  91        5S         -0.06637   0.10218   0.13224   0.02444   0.03580
  92        6S         -0.35772   0.05431  -0.16659   0.16436   0.00234
  93        7PX        -0.07102   0.07389  -0.03332  -0.02084   0.01288
  94        7PY        -0.01911  -0.03053  -0.00446   0.04640   0.08259
  95        7PZ         0.02205   0.01591   0.05541  -0.05603   0.05033
  96        8PX         0.03162  -0.03562   0.01466   0.01041  -0.00608
  97        8PY         0.00736   0.01370   0.00299  -0.02127  -0.03788
  98        8PZ        -0.00934  -0.00599  -0.02425   0.02609  -0.02282
  99        9PX         0.05701  -0.03673   0.02781   0.00681  -0.00797
 100        9PY         0.02534   0.02445  -0.00481  -0.03417  -0.06141
 101        9PZ        -0.02186  -0.02223  -0.04987   0.03821  -0.03961
 102       10PX         0.43851  -0.57857   0.21250   0.19330  -0.09397
 103       10PY         0.06372   0.18730   0.07262  -0.30847  -0.55200
 104       10PZ        -0.11294  -0.05023  -0.31384   0.38659  -0.32523
 105       11PX        -1.02263   1.03709  -0.41995  -0.36381   0.16160
 106       11PY         0.05548  -0.23188  -0.25377   0.54674   0.83766
 107       11PZ         0.15427   0.00623   0.35547  -0.67738   0.48788
 108 9   Cl 1S         -0.00487  -0.00421   0.00188   0.00085  -0.00086
 109        2S         -0.01429  -0.01220   0.00498   0.00242  -0.00240
 110        3S          0.03212   0.02612  -0.00652  -0.00464   0.00431
 111        4S          0.04988   0.04861  -0.03823  -0.01203   0.01330
 112        5S         -0.06613  -0.10260   0.13150   0.02393  -0.03677
 113        6S         -0.35811  -0.05397  -0.16682   0.16455  -0.00287
 114        7PX         0.05096  -0.00269   0.05847  -0.06061   0.00200
 115        7PY         0.02386   0.05549   0.02794   0.03248  -0.07739
 116        7PZ        -0.05233  -0.05953  -0.00110  -0.03186  -0.05955
 117        8PX        -0.02177  -0.00057  -0.02611   0.02782  -0.00119
 118        8PY        -0.01144  -0.02639  -0.01141  -0.01519   0.03534
 119        8PZ         0.02321   0.02814   0.00085   0.01550   0.02731
 120        9PX        -0.04896   0.01747  -0.04771   0.04501   0.00084
 121        9PY        -0.01202  -0.03114  -0.03141  -0.02068   0.05887
 122        9PZ         0.04279   0.03417  -0.00345   0.01500   0.04413
 123       10PX        -0.27041  -0.06443  -0.36157   0.39605  -0.02504
 124       10PY        -0.18584  -0.41300  -0.13025  -0.23798   0.51064
 125       10PZ         0.31912   0.44337   0.03988   0.26340   0.39845
 126       11PX         0.44528   0.23337   0.55072  -0.68832   0.04928
 127       11PY         0.57184   0.67802   0.08901   0.43379  -0.76378
 128       11PZ        -0.74083  -0.78144  -0.24254  -0.48030  -0.61860
                          61        62        63        64        65
                           V         V         V         V         V
     Eigenvalues --     0.33209   0.34202   0.34632   0.37217   0.43420
   1 1   Si 1S          0.00000   0.00700  -0.00005  -0.00041  -0.02554
   2        2S          0.00000   0.01875  -0.00014  -0.00077  -0.06793
   3        3S         -0.00000  -0.03882   0.00028  -0.00151   0.13517
   4        4S         -0.00003  -0.10951   0.00080   0.01995   0.43687
   5        5S          0.00021   0.44893  -0.00336  -0.23328  -2.51820
   6        6S          0.00185   0.18160   0.00057  -0.06808   5.71894
   7        7PX         0.00791   0.00344  -0.02981  -0.02039  -0.00516
   8        7PY         0.00281   0.00864  -0.01058   0.04298   0.00005
   9        7PZ        -0.00485   0.01110   0.01818  -0.00845  -0.00840
  10        8PX         0.01273   0.00505  -0.04772  -0.03350  -0.00836
  11        8PY         0.00453   0.01833  -0.01696   0.06879   0.00394
  12        8PZ        -0.00781   0.01959   0.02909  -0.01492  -0.01139
  13        9PX         0.00594   0.00076  -0.00549   0.01226   0.00230
  14        9PY         0.00193  -0.05947  -0.00164  -0.00133  -0.04776
  15        9PZ        -0.00369  -0.03283   0.00346   0.01913  -0.02374
  16       10PX        -0.19798  -0.10090   0.68346   0.42097   0.10294
  17       10PY        -0.06931   0.14364   0.24079  -1.06272   0.22640
  18       10PZ         0.12180  -0.09400  -0.41722   0.07344   0.29849
  19       11PX         0.39228   0.17609  -1.49783  -1.13354  -0.16646
  20       11PY         0.13719  -0.24921  -0.52869   2.56705  -0.84478
  21       11PZ        -0.23959   0.16862   0.91594  -0.36815  -0.75906
  22 2   H  1S         -0.00001  -0.03790   0.00025  -0.08666   0.03605
  23        2S          0.00015  -0.24929   0.00181  -1.64367   0.28537
  24        3S         -0.00115   0.11345  -0.00194   3.49943  -2.00962
  25        4PX        -0.00940  -0.00459   0.02402   0.03545   0.00579
  26        4PY        -0.00331   0.00315   0.00846  -0.08219  -0.01587
  27        4PZ         0.00579  -0.00599  -0.01464   0.01048   0.00038
  28 3   H  1S          0.02920  -0.02287  -0.05252   0.00413   0.05110
  29        2S          0.40417  -0.02834  -1.14766   0.40435   0.46938
  30        3S         -0.65415  -0.11878   2.34907  -1.15719  -2.01161
  31        4PX        -0.00784   0.00625   0.04283  -0.00228   0.02207
  32        4PY        -0.02248   0.00734   0.01606  -0.02787   0.01724
  33        4PZ         0.01532   0.00781  -0.05598   0.02253   0.00182
  34 4   H  1S         -0.02906  -0.02216   0.05286   0.00416   0.05107
  35        2S         -0.40270  -0.01335   1.14863   0.40429   0.46895
  36        3S          0.65278  -0.14853  -2.34816  -1.15653  -2.01072
  37        4PX        -0.02566   0.00179   0.06758   0.03229  -0.01401
  38        4PY         0.01058   0.00572   0.02290  -0.01576   0.00448
  39        4PZ         0.00526   0.01083  -0.01175   0.00133   0.02381
  40 5   O  1S         -0.00002  -0.00515   0.00001  -0.00105   0.00055
  41        2S         -0.00003  -0.00738   0.00001  -0.00183  -0.00105
  42        2PX         0.02331   0.01750  -0.00970  -0.01949  -0.01981
  43        2PY         0.00814  -0.01997  -0.00330   0.05010   0.00987
  44        2PZ        -0.01425   0.01746   0.00581  -0.00294  -0.02678
  45        3S          0.00009  -0.00534   0.00015   0.00515   0.05679
  46        3PX         0.03948   0.03065  -0.02362  -0.03848  -0.04031
  47        3PY         0.01382  -0.02861  -0.00817   0.10520   0.00445
  48        3PZ        -0.02417   0.03434   0.01419  -0.00211  -0.06349
  49        4S          0.00084   0.43205  -0.00212  -0.00646  -0.54266
  50        4PX         0.03292  -0.01857   0.04811  -0.01349   0.11138
  51        4PY         0.01166   0.00601   0.01712   0.00460   0.08470
  52        4PZ        -0.01994  -0.02746  -0.02898  -0.01972   0.23109
  53 6   P  1S          0.00002   0.00207  -0.00000   0.00028  -0.00946
  54        2S          0.00004   0.00520  -0.00000   0.00041  -0.02510
  55        3S         -0.00006  -0.00669  -0.00001   0.00260   0.04465
  56        4S         -0.00034  -0.04637   0.00004  -0.01883   0.16943
  57        5S          0.00150   0.20742  -0.00020   0.16667  -0.78376
  58        6S         -0.00151  -0.17090   0.00024  -0.94141   1.41200
  59        7PX        -0.00354  -0.00128  -0.00358   0.00707  -0.00394
  60        7PY        -0.00116   0.02336  -0.00140  -0.01560  -0.01021
  61        7PZ         0.00223   0.01137   0.00206   0.00257  -0.01230
  62        8PX        -0.00596  -0.00265  -0.00813   0.01320  -0.00726
  63        8PY        -0.00195   0.04154  -0.00310  -0.02178  -0.01708
  64        8PZ         0.00375   0.01963   0.00474   0.00901  -0.02170
  65        9PX         0.00600   0.00736   0.02798  -0.03054   0.01362
  66        9PY         0.00184  -0.07980   0.01027   0.00807   0.02931
  67        9PZ        -0.00384  -0.03420  -0.01666  -0.04517   0.03918
  68       10PX         0.12858  -0.00740  -0.05576  -0.00755   0.03705
  69       10PY         0.04450  -0.18396  -0.01844   0.26466   0.08648
  70       10PZ        -0.07931  -0.11638   0.03493   0.13958   0.10997
  71       11PX        -0.73313  -0.07012  -0.23785   0.05411  -0.11598
  72       11PY        -0.25350   1.58375  -0.09119  -0.37016   0.35872
  73       11PZ         0.45110   0.79479   0.13941  -0.12781   0.01579
  74 7   O  1S          0.00001   0.00721  -0.00004  -0.00323   0.00883
  75        2S          0.00002   0.01071  -0.00005  -0.00503   0.01462
  76        2PX         0.01943  -0.01193  -0.01668   0.00467   0.00170
  77        2PY         0.00678  -0.03305  -0.00574   0.00182  -0.00516
  78        2PZ        -0.01207  -0.03819   0.01059   0.00862  -0.00018
  79        3S          0.00003  -0.00756  -0.00003   0.01038  -0.04405
  80        3PX         0.02597  -0.02563  -0.03690   0.01008   0.00003
  81        3PY         0.00909  -0.04484  -0.01281   0.00438  -0.01435
  82        3PZ        -0.01621  -0.06708   0.02325   0.01885  -0.00822
  83        4S         -0.00106  -0.37890   0.00249   0.14314  -0.26241
  84        4PX         0.05735   0.02068   0.02254  -0.00603   0.05271
  85        4PY         0.01985  -0.09198   0.00833   0.00819   0.05472
  86        4PZ        -0.03528  -0.01899  -0.01369  -0.00492   0.11789
  87 8   Cl 1S         -0.00105   0.00139   0.00135  -0.00232  -0.00318
  88        2S         -0.00302   0.00387   0.00361  -0.00649  -0.00886
  89        3S          0.00615  -0.00689  -0.00502   0.01181   0.01585
  90        4S          0.01358  -0.02190  -0.02692   0.03586   0.05014
  91        5S         -0.02058   0.06191   0.10116  -0.10541  -0.13623
  92        6S         -0.22684  -0.01760  -0.20643   0.03457  -0.06242
  93        7PX         0.01787  -0.01025  -0.02144   0.01401  -0.00871
  94        7PY         0.03836  -0.06304   0.01189  -0.01485  -0.01737
  95        7PZ        -0.06744  -0.04222  -0.03321   0.01584  -0.01145
  96        8PX        -0.00974   0.00461   0.00865  -0.00556   0.00357
  97        8PY        -0.01928   0.03073  -0.00424   0.00609   0.00816
  98        8PZ         0.03254   0.02035   0.01685  -0.00818   0.00516
  99        9PX         0.00060   0.00795   0.02540  -0.01816   0.01140
 100        9PY        -0.01525   0.03229  -0.01925   0.01771   0.01117
 101        9PZ         0.03794   0.02355   0.01158  -0.00454   0.00906
 102       10PX        -0.20382   0.07289   0.10752  -0.06300   0.03364
 103       10PY        -0.33065   0.51478  -0.02699   0.06587   0.14383
 104       10PZ         0.52355   0.33368   0.29936  -0.15047   0.08652
 105       11PX         0.34920  -0.09055  -0.25803   0.16813  -0.30858
 106       11PY         0.61545  -1.14848   0.02273   0.10178  -0.41889
 107       11PZ        -0.94483  -0.70348  -0.57657   0.39471  -0.22837
 108 9   Cl 1S          0.00107   0.00137  -0.00136  -0.00232  -0.00318
 109        2S          0.00308   0.00382  -0.00363  -0.00648  -0.00884
 110        3S         -0.00626  -0.00680   0.00506   0.01180   0.01582
 111        4S         -0.01387  -0.02150   0.02700   0.03578   0.05007
 112        5S          0.02132   0.06058  -0.10127  -0.10512  -0.13604
 113        6S          0.22741  -0.01632   0.20592   0.03393  -0.06246
 114        7PX         0.07891  -0.00154   0.02574   0.01527   0.00165
 115        7PY        -0.00456  -0.05999  -0.00980  -0.01445  -0.01348
 116        7PZ         0.00796  -0.04732   0.03131   0.01494  -0.01779
 117        8PX        -0.03882   0.00069  -0.01296  -0.00770  -0.00078
 118        8PY         0.00232   0.02934   0.00245   0.00537   0.00653
 119        8PZ        -0.00270   0.02263  -0.01456  -0.00681   0.00782
 120        9PX        -0.03778   0.00152  -0.01014  -0.00597  -0.00164
 121        9PY         0.00224   0.03019   0.02427   0.02195   0.00632
 122        9PZ        -0.01504   0.02742  -0.02138  -0.01195   0.01700
 123       10PX        -0.65019   0.00691  -0.22272  -0.13315  -0.00742
 124       10PY         0.03245   0.49083  -0.01804   0.04197   0.12794
 125       10PZ         0.00110   0.37178  -0.23439  -0.10639   0.11200
 126       11PX         1.17574  -0.00607   0.39778   0.21873   0.11238
 127       11PY        -0.08470  -1.11726   0.03689   0.11744  -0.26887
 128       11PZ         0.00764  -0.75042   0.50210   0.36044  -0.48696
                          66        67        68        69        70
                           V         V         V         V         V
     Eigenvalues --     0.49439   0.77434   0.79242   0.81507   0.83158
   1 1   Si 1S          0.01050  -0.00001  -0.00000   0.00196   0.00221
   2        2S          0.02725  -0.00003  -0.00001   0.00465   0.00590
   3        3S         -0.04752   0.00005   0.00002  -0.00364  -0.01178
   4        4S         -0.21132   0.00031   0.00010  -0.06021  -0.04239
   5        5S          1.56364  -0.00195  -0.00073   0.12810   0.50082
   6        6S         -3.06842   0.00236   0.00106   0.84536  -1.40780
   7        7PX        -0.00603   0.01001  -0.01809   0.01656  -0.02580
   8        7PY         0.01756   0.00343  -0.00639   0.04903   0.00116
   9        7PZ         0.00023  -0.00615   0.01106   0.05534  -0.04143
  10        8PX        -0.01151   0.02452  -0.03783   0.03366  -0.05633
  11        8PY         0.02988   0.00842  -0.01337   0.10516   0.00447
  12        8PZ        -0.00168  -0.01504   0.02315   0.11565  -0.08935
  13        9PX         0.02857  -0.11299   0.14290  -0.14678   0.26853
  14        9PY        -0.06162  -0.03863   0.05061  -0.49810  -0.03996
  15        9PZ         0.01141   0.06927  -0.08745  -0.52708   0.41528
  16       10PX         0.03679   0.16087  -0.04834   0.30464  -0.44411
  17       10PY        -0.06943   0.05407  -0.01790   0.94884   0.07547
  18       10PZ         0.02035  -0.09924   0.02953   1.04458  -0.68200
  19       11PX         0.32554   0.30691   0.21392  -0.08544   0.11828
  20       11PY        -1.24873   0.11179   0.07618  -0.38084  -0.25620
  21       11PZ        -0.18834  -0.18849  -0.13060  -0.36171   0.04299
  22 2   H  1S         -0.00414  -0.00003  -0.00001  -0.02385   0.01284
  23        2S          0.11343  -0.00112  -0.00054   0.05932   0.21683
  24        3S         -0.34288   0.00208   0.00043  -0.23290   0.00807
  25        4PX        -0.02513   0.03708   0.05801  -0.00247  -0.01724
  26        4PY         0.02309   0.01273   0.02044   0.13492   0.01527
  27        4PZ        -0.02758  -0.02290  -0.03571   0.07353  -0.01977
  28 3   H  1S          0.01643   0.00204  -0.00612  -0.00906   0.03449
  29        2S          0.28251   0.09434  -0.05544  -0.08058   0.02755
  30        3S          0.47937  -0.49582  -0.14790  -0.09106   0.17866
  31        4PX         0.03188   0.00295   0.01046  -0.02728  -0.06620
  32        4PY        -0.01823   0.02949  -0.03670   0.01871   0.03060
  33        4PZ         0.02068   0.03255   0.01867   0.07048  -0.10790
  34 4   H  1S          0.01648  -0.00229   0.00613  -0.00905   0.03452
  35        2S          0.28262  -0.09390   0.05559  -0.08094   0.02748
  36        3S          0.47853   0.49306   0.14744  -0.08837   0.18092
  37        4PX         0.01488  -0.01165  -0.02908   0.05757  -0.08069
  38        4PY        -0.02435  -0.03256   0.02963   0.04866   0.02548
  39        4PZ         0.03098  -0.02679  -0.00681   0.01819  -0.09934
  40 5   O  1S          0.00241   0.00001  -0.00002  -0.01691   0.03449
  41        2S          0.00439   0.00003  -0.00004  -0.03526   0.06415
  42        2PX         0.00253   0.12561   0.13660  -0.09488  -0.04632
  43        2PY        -0.02521   0.04398   0.04767  -0.00418   0.13427
  44        2PZ        -0.01049  -0.07635  -0.08319  -0.15845   0.00081
  45        3S         -0.01581  -0.00031   0.00010   0.29678  -0.37631
  46        3PX         0.01763   0.36386   0.43086  -0.30462  -0.17463
  47        3PY        -0.07543   0.12729   0.15025  -0.00705   0.48484
  48        3PZ        -0.01484  -0.22101  -0.26237  -0.50489  -0.00879
  49        4S         -0.12475   0.00075   0.00042  -0.62745   0.23966
  50        4PX         0.00673  -0.52903  -0.72527   0.69267   0.33402
  51        4PY        -0.21531  -0.18463  -0.25233   0.08755  -1.24537
  52        4PZ        -0.11250   0.32058   0.44146   1.18763  -0.16645
  53 6   P  1S         -0.02204   0.00001  -0.00000  -0.00067  -0.00286
  54        2S         -0.05714   0.00002   0.00000  -0.00167  -0.00797
  55        3S          0.08883  -0.00003  -0.00001   0.00160   0.01749
  56        4S          0.44983  -0.00012   0.00004   0.02021   0.04380
  57        5S         -2.19124   0.00080   0.00020  -0.12077  -0.44040
  58        6S          3.38815  -0.00234  -0.00216   0.24238   1.63317
  59        7PX         0.00306  -0.01450   0.00061  -0.00268  -0.00135
  60        7PY         0.00440  -0.00509   0.00024  -0.00864  -0.00354
  61        7PZ         0.00762   0.00886  -0.00037  -0.00932  -0.00422
  62        8PX         0.00742  -0.03932   0.00627  -0.00962  -0.00261
  63        8PY         0.00580  -0.01379   0.00225  -0.01919  -0.00694
  64        8PZ         0.01562   0.02404  -0.00382  -0.02668  -0.00821
  65        9PX        -0.03117   0.18300  -0.05311   0.06160  -0.00131
  66        9PY        -0.00136   0.06413  -0.01891   0.10027   0.05868
  67        9PZ        -0.05219  -0.11196   0.03235   0.15802   0.03136
  68       10PX         0.11652  -0.37405   0.18463  -0.20978   0.12879
  69       10PY        -0.05787  -0.13035   0.06608  -0.43267  -0.50074
  70       10PZ         0.15734   0.22926  -0.11246  -0.59127  -0.07687
  71       11PX        -0.26244  -0.36858   0.34041  -0.28132  -0.04659
  72       11PY        -0.63825  -0.13033   0.11911   0.58498  -0.18673
  73       11PZ        -0.79225   0.22613  -0.20722  -0.12378  -0.18326
  74 7   O  1S         -0.00221   0.00001  -0.00001   0.00070  -0.00159
  75        2S         -0.00455   0.00001  -0.00002   0.00372  -0.00337
  76        2PX        -0.00925   0.01728  -0.14565   0.01897   0.08801
  77        2PY         0.01549   0.00601  -0.05108   0.07845  -0.10350
  78        2PZ        -0.00627  -0.01071   0.08880   0.07639   0.08505
  79        3S          0.04402   0.00001   0.00012  -0.07658   0.02824
  80        3PX        -0.01532   0.03176  -0.42036   0.05991   0.26920
  81        3PY         0.04180   0.01096  -0.14740   0.26396  -0.32496
  82        3PZ        -0.00107  -0.01993   0.25631   0.25057   0.25532
  83        4S         -0.25248  -0.00024  -0.00010   0.28942  -0.12610
  84        4PX         0.07593   0.01297   0.55750  -0.14516  -0.40292
  85        4PY         0.09416   0.00497   0.19546  -0.55543   0.54546
  86        4PZ         0.17823  -0.00694  -0.33982  -0.55823  -0.34822
  87 8   Cl 1S         -0.00911   0.02076  -0.00968   0.00557   0.00502
  88        2S         -0.02533   0.05678  -0.02636   0.01511   0.01356
  89        3S          0.04499  -0.09178   0.04150  -0.02339  -0.02026
  90        4S          0.14641  -0.38470   0.18393  -0.10763  -0.10003
  91        5S         -0.40982   1.42593  -0.69517   0.41703   0.39662
  92        6S         -0.16626  -1.55442   0.84245  -0.54767  -0.59477
  93        7PX         0.02577  -0.03387   0.00895  -0.00139   0.00359
  94        7PY        -0.00458   0.00437   0.01100  -0.00690  -0.00848
  95        7PZ        -0.00446   0.00741   0.00579  -0.00396  -0.00058
  96        8PX        -0.01331   0.00941  -0.00175  -0.00071  -0.00220
  97        8PY         0.00287  -0.00201  -0.00536   0.00320   0.00370
  98        8PZ         0.00150  -0.00243  -0.00323   0.00097   0.00118
  99        9PX        -0.00315   0.08575  -0.02936   0.01401   0.00272
 100        9PY        -0.00262  -0.00398  -0.00876   0.00650   0.01051
 101        9PZ         0.00759  -0.01552  -0.00056   0.01138  -0.00662
 102       10PX        -0.30919   0.03432   0.01469  -0.04013  -0.05393
 103       10PY         0.06790  -0.04018  -0.09107   0.05425   0.04942
 104       10PZ         0.01629  -0.01394  -0.07299  -0.01712   0.04096
 105       11PX         0.03423  -0.48891   0.20527  -0.12443  -0.19320
 106       11PY        -0.12214   0.12549   0.14632  -0.21239  -0.05355
 107       11PZ         0.01831  -0.00154   0.19870   0.09478  -0.06829
 108 9   Cl 1S         -0.00912  -0.02077   0.00967   0.00552   0.00502
 109        2S         -0.02537  -0.05681   0.02631   0.01498   0.01355
 110        3S          0.04504   0.09182  -0.04143  -0.02317  -0.02023
 111        4S          0.14668   0.38491  -0.18358  -0.10674  -0.09993
 112        5S         -0.41083  -1.42678   0.69379   0.41374   0.39625
 113        6S         -0.16426   1.55597  -0.84039  -0.54427  -0.59441
 114        7PX        -0.01010  -0.01541   0.00340   0.00041   0.00229
 115        7PY        -0.01712  -0.02162  -0.00661  -0.00633  -0.00901
 116        7PZ         0.01766   0.02268  -0.01340  -0.00509   0.00019
 117        8PX         0.00432   0.00421  -0.00046  -0.00045  -0.00002
 118        8PY         0.00902   0.00677   0.00456   0.00332   0.00449
 119        8PZ        -0.00937  -0.00588   0.00459   0.00082  -0.00014
 120        9PX         0.00847   0.03968  -0.01344   0.00166  -0.01122
 121        9PY         0.00145   0.04797  -0.00631   0.00226   0.00573
 122        9PZ         0.00027  -0.06112   0.02679   0.01893   0.00193
 123       10PX         0.08472   0.00419   0.02188  -0.02577   0.02841
 124       10PY         0.20557   0.05333   0.10359   0.05966   0.07867
 125       10PZ        -0.22574  -0.00929   0.05084  -0.02564  -0.00915
 126       11PX         0.06261  -0.10532  -0.02507   0.21827   0.03439
 127       11PY        -0.11090  -0.33322  -0.08265  -0.09319   0.02572
 128       11PZ         0.00477   0.36431  -0.30875  -0.11454  -0.20747
                          71        72        73        74        75
                           V         V         V         V         V
     Eigenvalues --     0.83709   0.91655   0.92257   0.93451   0.97551
   1 1   Si 1S          0.00306   0.00125   0.00000   0.00129  -0.00003
   2        2S          0.00863   0.00360   0.00001   0.00374  -0.00089
   3        3S         -0.02195  -0.00993  -0.00002  -0.01014   0.00991
   4        4S         -0.03950  -0.01280  -0.00001  -0.01645  -0.03350
   5        5S          0.24451   0.17110   0.00016   0.12006   0.16148
   6        6S          0.07745  -0.40055   0.00012  -0.13251  -0.15227
   7        7PX         0.01902  -0.04143   0.11468   0.03629  -0.01685
   8        7PY        -0.04767   0.10530   0.04059  -0.00328  -0.02577
   9        7PZ         0.00377  -0.00666  -0.07018   0.05742  -0.04244
  10        8PX         0.03818  -0.08995   0.24985   0.07974  -0.03839
  11        8PY        -0.09454   0.23375   0.08846  -0.00891  -0.06478
  12        8PZ         0.00823  -0.01151  -0.15289   0.12520  -0.10017
  13        9PX        -0.15090   0.43407  -1.17868  -0.38995   0.18124
  14        9PY         0.33563  -1.13395  -0.41740   0.06662   0.34744
  15        9PZ        -0.05450   0.05223   0.72127  -0.59897   0.49686
  16       10PX         0.10593  -0.60829   1.50193   0.62521  -0.16390
  17       10PY         0.03745   1.55755   0.53231  -0.12364  -0.51373
  18       10PZ         0.19550  -0.09180  -0.91908   0.95069  -0.56434
  19       11PX         0.00555   0.36319  -0.56897  -0.32647   0.06592
  20       11PY        -0.46593  -1.04470  -0.20236   0.07778   0.23704
  21       11PZ        -0.26066  -0.01123   0.34781  -0.48829   0.24437
  22 2   H  1S          0.03930  -0.02606   0.00000   0.00524  -0.00035
  23        2S          0.25782   0.34623   0.00043  -0.12010  -0.13041
  24        3S         -0.63303  -0.39963  -0.00079   0.14811   0.15991
  25        4PX         0.04282  -0.10402   0.08776   0.02811  -0.01368
  26        4PY        -0.06135   0.30364   0.03121  -0.03202  -0.06107
  27        4PZ         0.03421   0.00548  -0.05369   0.02751  -0.05751
  28 3   H  1S         -0.00234   0.02352   0.05005  -0.01471   0.00687
  29        2S         -0.01604  -0.06910  -0.13845   0.07524  -0.02573
  30        3S          0.00513   0.14002  -0.10044  -0.07241  -0.03884
  31        4PX        -0.06596  -0.02447   0.15938   0.03046  -0.02342
  32        4PY        -0.00061   0.11672   0.14345  -0.04135   0.02275
  33        4PZ         0.04430  -0.07446  -0.21632   0.13942  -0.06472
  34 4   H  1S         -0.00228   0.02364  -0.05000  -0.01468   0.00688
  35        2S         -0.01585  -0.06921   0.13856   0.07528  -0.02564
  36        3S          0.00546   0.14024   0.10008  -0.07283  -0.03861
  37        4PX         0.05809  -0.10819   0.29744   0.12308  -0.05572
  38        4PY         0.04358   0.08704   0.01824  -0.00868   0.01114
  39        4PZ        -0.03211  -0.02354  -0.06340   0.08277  -0.04493
  40 5   O  1S         -0.00501  -0.02102  -0.00005   0.00779   0.05174
  41        2S         -0.01160  -0.04205  -0.00009   0.01361   0.10083
  42        2PX        -0.07989  -0.00710  -0.03822  -0.02647  -0.03561
  43        2PY         0.12226   0.03243  -0.01331  -0.07442  -0.02310
  44        2PZ        -0.06072   0.00674   0.02333  -0.08605  -0.07142
  45        3S          0.11334   0.32091   0.00069  -0.05320  -0.71270
  46        3PX        -0.25843  -0.02141  -0.10220  -0.05902  -0.15314
  47        3PY         0.40406   0.13859  -0.03545  -0.20216  -0.06288
  48        3PZ        -0.19144   0.04389   0.06241  -0.21266  -0.28632
  49        4S         -0.09614  -0.59752  -0.00120  -0.27932   1.05786
  50        4PX         0.47284   0.16787   0.12583   0.11658   0.20632
  51        4PY        -0.77934  -0.48500   0.04279   0.48100   0.20864
  52        4PZ         0.32712  -0.00311  -0.07640   0.46703   0.45660
  53 6   P  1S          0.00681   0.00162   0.00001   0.00004  -0.00303
  54        2S          0.01725   0.00325   0.00001  -0.00022  -0.00813
  55        3S         -0.02228   0.00408  -0.00000   0.00355   0.01523
  56        4S         -0.16828  -0.06958  -0.00018  -0.01345   0.05831
  57        5S          0.86701   0.17325   0.00080  -0.01341  -0.50282
  58        6S         -1.15750   0.75523   0.00002   0.41555   1.53067
  59        7PX         0.01439  -0.00446   0.00841   0.00454  -0.00041
  60        7PY        -0.00284  -0.03104   0.00289   0.01683   0.03601
  61        7PZ         0.02192  -0.02509  -0.00520   0.01710   0.02002
  62        8PX         0.03400  -0.01010   0.01673   0.01049  -0.00670
  63        8PY        -0.00912  -0.07225   0.00573   0.03487   0.08779
  64        8PZ         0.05044  -0.05795  -0.01035   0.03720   0.03948
  65        9PX        -0.15272   0.02118  -0.04864  -0.04794   0.05341
  66        9PY         0.07888   0.28940  -0.01645  -0.14298  -0.40276
  67        9PZ        -0.20472   0.20067   0.03015  -0.16059  -0.14413
  68       10PX         0.38265   0.17480   0.00145   0.12133  -0.08287
  69       10PY        -0.49701  -0.35769  -0.00078   0.41563   0.79179
  70       10PZ         0.34083   0.08088  -0.00079   0.43756   0.32014
  71       11PX         0.02017  -0.11212  -0.23178   0.09215  -0.74866
  72       11PY         0.10313  -0.26839  -0.08178  -0.75816   0.56450
  73       11PZ         0.09241  -0.33793   0.14151  -0.28483  -0.89885
  74 7   O  1S         -0.01007   0.03269   0.00005  -0.00002  -0.00937
  75        2S         -0.01947   0.06109   0.00009  -0.00134  -0.01971
  76        2PX        -0.05059  -0.04645  -0.07117   0.03260  -0.08140
  77        2PY         0.02397  -0.02569  -0.02500  -0.20022   0.02842
  78        2PZ        -0.06893  -0.09104   0.04337  -0.06170  -0.11653
  79        3S          0.12884  -0.37079  -0.00061   0.04098   0.17266
  80        3PX        -0.14241  -0.16908  -0.22229   0.09230  -0.27115
  81        3PY         0.05864  -0.14188  -0.07819  -0.61964   0.12451
  82        3PZ        -0.19908  -0.35911   0.13533  -0.20503  -0.37112
  83        4S         -0.06825   0.33436   0.00074  -0.12893  -0.37704
  84        4PX         0.19164   0.28786   0.37870  -0.08472   0.62199
  85        4PY        -0.04557   0.31550   0.13331   1.12796  -0.19152
  86        4PZ         0.28703   0.65384  -0.23072   0.50965   0.90602
  87 8   Cl 1S         -0.01503  -0.00042   0.00128   0.00018   0.01025
  88        2S         -0.04106  -0.00117   0.00331   0.00046   0.02763
  89        3S          0.06579   0.00202  -0.00356  -0.00042  -0.04085
  90        4S          0.28332   0.00743  -0.03080  -0.00453  -0.20973
  91        5S         -1.09056  -0.02723   0.13344   0.01680   0.87867
  92        6S          1.31959  -0.00823  -0.26810  -0.02377  -1.45050
  93        7PX         0.01430   0.00120   0.00963   0.00377   0.01469
  94        7PY        -0.00931   0.00021   0.00161   0.00614   0.00840
  95        7PZ         0.00665   0.00568   0.00184   0.00495   0.00638
  96        8PX        -0.00285  -0.00044  -0.00407  -0.00107  -0.00736
  97        8PY         0.00416  -0.00094  -0.00037  -0.00265  -0.00184
  98        8PZ        -0.00279  -0.00254  -0.00038  -0.00192  -0.00302
  99        9PX        -0.05029  -0.00263  -0.01304  -0.00995  -0.00699
 100        9PY         0.01090   0.00653  -0.00370  -0.00749  -0.02713
 101        9PZ        -0.00904  -0.00691  -0.00585  -0.00817  -0.00633
 102       10PX         0.04516  -0.00330  -0.05891   0.00122  -0.14233
 103       10PY         0.06273  -0.04090  -0.00709  -0.04507   0.04415
 104       10PZ        -0.03091  -0.03835   0.00735  -0.02179  -0.05787
 105       11PX         0.43998  -0.04518   0.07861  -0.01432  -0.26772
 106       11PY        -0.16378   0.09214   0.09696   0.22217  -0.24379
 107       11PZ        -0.00008   0.08004  -0.03226   0.08774   0.27897
 108 9   Cl 1S         -0.01503  -0.00042  -0.00130   0.00018   0.01023
 109        2S         -0.04106  -0.00117  -0.00335   0.00047   0.02758
 110        3S          0.06580   0.00204   0.00363  -0.00043  -0.04078
 111        4S          0.28335   0.00745   0.03117  -0.00457  -0.20936
 112        5S         -1.09062  -0.02727  -0.13496   0.01694   0.87714
 113        6S          1.31954  -0.00848   0.27025  -0.02374  -1.44800
 114        7PX         0.00497   0.00413   0.00251  -0.00010  -0.00369
 115        7PY        -0.01262   0.00122   0.00267   0.00480   0.00195
 116        7PZ         0.01234   0.00394  -0.00926   0.00731   0.01756
 117        8PX        -0.00326  -0.00148  -0.00124   0.00004   0.00088
 118        8PY         0.00403  -0.00130  -0.00150  -0.00227   0.00105
 119        8PZ        -0.00253  -0.00192   0.00362  -0.00259  -0.00803
 120        9PX         0.00445  -0.00782  -0.00138   0.00017   0.00997
 121        9PY         0.03019   0.00473  -0.00137  -0.00396  -0.02117
 122        9PZ        -0.04246  -0.00384   0.01465  -0.01434  -0.01659
 123       10PX        -0.06979  -0.01090  -0.02922   0.00290  -0.02015
 124       10PY         0.02251  -0.04344  -0.02406  -0.04456   0.08701
 125       10PZ         0.03938  -0.03381   0.04651  -0.02283  -0.13236
 126       11PX        -0.07161   0.03698   0.09800  -0.02765   0.43263
 127       11PY        -0.34360   0.12112  -0.03481   0.21758   0.00178
 128       11PZ         0.31213   0.03036  -0.07556   0.09586  -0.14828
                          76        77        78        79        80
                           V         V         V         V         V
     Eigenvalues --     0.99828   1.00060   1.21045   1.21395   1.21841
   1 1   Si 1S         -0.00016  -0.00000   0.00228  -0.00003  -0.00336
   2        2S         -0.00020  -0.00000   0.00581  -0.00008  -0.00841
   3        3S         -0.00196   0.00004  -0.00912   0.00012   0.01160
   4        4S          0.01291  -0.00012  -0.05618   0.00083   0.08944
   5        5S          0.21547  -0.00386   0.24141  -0.00348  -0.35598
   6        6S         -1.40583   0.02292  -0.21203   0.00306   0.12912
   7        7PX         0.05148  -0.03732  -0.01253   0.00240   0.02774
   8        7PY        -0.02844  -0.01241  -0.02365   0.00116   0.05137
   9        7PZ         0.06913   0.02129  -0.03418  -0.00080   0.07497
  10        8PX         0.11616  -0.08320  -0.03010   0.00574   0.06582
  11        8PY        -0.06048  -0.02770  -0.05234   0.00271   0.11566
  12        8PZ         0.15807   0.04740  -0.07951  -0.00196   0.17427
  13        9PX        -0.55944   0.43683   0.14902  -0.03069  -0.32435
  14        9PY         0.33173   0.14544   0.26319  -0.01429  -0.58382
  15        9PZ        -0.73944  -0.25073   0.39598   0.01104  -0.86674
  16       10PX         0.61244  -0.71805  -0.11204   0.04787   0.25381
  17       10PY        -0.73213  -0.23773  -0.26613   0.02081   0.61018
  18       10PZ         0.60651   0.42437  -0.33714  -0.02278   0.76617
  19       11PX        -0.20478   0.38955   0.01549  -0.05250  -0.18673
  20       11PY         0.14740   0.13265   0.30475  -0.02218  -0.16013
  21       11PZ        -0.26566  -0.23203   0.20143   0.02838  -0.39642
  22 2   H  1S          0.02274  -0.00037  -0.00486   0.00006   0.00375
  23        2S         -0.03288   0.00094  -0.05617   0.00093   0.11346
  24        3S          0.14810  -0.00361   0.18951  -0.00211   0.03923
  25        4PX         0.08062  -0.11319  -0.27374   0.49736  -0.24206
  26        4PY        -0.15229  -0.03689  -0.18249   0.17705   0.01956
  27        4PZ         0.04811   0.06796  -0.56214  -0.30016  -0.37870
  28 3   H  1S         -0.00755  -0.00620  -0.01436   0.00039   0.02284
  29        2S          0.14215   0.18510  -0.06517  -0.00013   0.09692
  30        3S          0.27393  -0.10082   0.09759  -0.00611  -0.10003
  31        4PX        -0.00276  -0.11717   0.35892  -0.50642   0.04147
  32        4PY        -0.11914  -0.05310   0.02564  -0.04912   0.19380
  33        4PZ         0.06444   0.06796   0.16194  -0.23204   0.11176
  34 4   H  1S         -0.00722   0.00636  -0.01433   0.00009   0.02264
  35        2S          0.13613  -0.18954  -0.06535   0.00208   0.09684
  36        3S          0.27747   0.09254   0.09806   0.00283  -0.09971
  37        4PX         0.10534  -0.12300   0.00007  -0.00256  -0.01360
  38        4PY        -0.08088  -0.02756  -0.10222  -0.12741   0.18301
  39        4PZ        -0.00186   0.07693   0.39152   0.53806   0.14387
  40 5   O  1S         -0.01252   0.00015  -0.01386   0.00028   0.05081
  41        2S         -0.02585   0.00031  -0.02785   0.00055   0.10162
  42        2PX        -0.00240  -0.09488  -0.02655  -0.00725   0.01842
  43        2PY         0.10430  -0.03501   0.01810  -0.00270   0.03044
  44        2PZ         0.05971   0.05716  -0.03268   0.00506   0.04767
  45        3S          0.22823  -0.00291   0.21125  -0.00420  -0.76761
  46        3PX         0.01717  -0.32581  -0.08530  -0.00612   0.07432
  47        3PY         0.36623  -0.12023  -0.01907  -0.00160   0.18820
  48        3PZ         0.25117   0.19538  -0.14995   0.00644   0.22971
  49        4S         -0.72057   0.01037  -0.20909   0.00499   1.01428
  50        4PX         0.08913   0.72918   0.20864  -0.01158  -0.22685
  51        4PY        -1.04570   0.27334  -0.00735  -0.00388  -0.15750
  52        4PZ        -0.48314  -0.43949   0.33659   0.00093  -0.46131
  53 6   P  1S         -0.00602   0.00009   0.00223  -0.00002   0.00090
  54        2S         -0.01681   0.00027   0.00647  -0.00006   0.00228
  55        3S          0.03734  -0.00059  -0.01653   0.00017  -0.00277
  56        4S          0.09468  -0.00148  -0.02745   0.00023  -0.02520
  57        5S         -0.88511   0.01404   0.26665  -0.00234   0.17358
  58        6S          2.77555  -0.04453  -0.80808   0.00783  -0.23823
  59        7PX         0.00046   0.01143  -0.00831   0.01802  -0.00479
  60        7PY        -0.03140   0.00449  -0.02028   0.00666   0.03886
  61        7PZ        -0.01773  -0.00669  -0.02577  -0.01067   0.01419
  62        8PX        -0.00072   0.01613  -0.02097   0.04192  -0.01069
  63        8PY        -0.06929   0.00670  -0.05214   0.01557   0.09930
  64        8PZ        -0.04162  -0.00915  -0.06547  -0.02474   0.03888
  65        9PX         0.00029  -0.00164   0.10108  -0.17546   0.04100
  66        9PY         0.28536  -0.00484   0.25746  -0.06565  -0.47152
  67        9PZ         0.16460  -0.00176   0.31833   0.10289  -0.20108
  68       10PX         0.13100  -0.23285  -0.17360   0.16052  -0.02094
  69       10PY        -0.49161  -0.07372  -0.48295   0.06271   0.67531
  70       10PZ        -0.05971   0.14185  -0.56627  -0.09038   0.35166
  71       11PX        -0.34119  -1.18207  -0.07892   0.06013   0.23418
  72       11PY        -0.34902  -0.41220  -0.06933   0.02231   0.23016
  73       11PZ        -0.71321   0.73756  -0.16944  -0.03284   0.51398
  74 7   O  1S          0.03890  -0.00061   0.04138  -0.00051  -0.04006
  75        2S          0.07356  -0.00116   0.08271  -0.00103  -0.07957
  76        2PX        -0.03513  -0.14202   0.00979   0.00591  -0.00893
  77        2PY         0.03687  -0.05065  -0.00015   0.00222   0.02574
  78        2PZ        -0.03069   0.08765   0.01586  -0.00384   0.00008
  79        3S         -0.46200   0.00729  -0.63453   0.00787   0.59896
  80        3PX        -0.12773  -0.46360   0.01877   0.02096  -0.01712
  81        3PY         0.05857  -0.16448  -0.01440   0.00795   0.09791
  82        3PZ        -0.15715   0.28719   0.02214  -0.01304   0.02790
  83        4S          0.32599  -0.00516   1.08952  -0.01354  -0.97256
  84        4PX         0.25466   0.90096  -0.14208  -0.05585   0.11031
  85        4PY         0.01502   0.31773  -0.11565  -0.01960  -0.12293
  86        4PZ         0.39017  -0.55965  -0.29824   0.03842   0.11100
  87 8   Cl 1S          0.01027   0.01010  -0.00034   0.00051  -0.00122
  88        2S          0.02771   0.02736  -0.00086   0.00149  -0.00317
  89        3S         -0.04123  -0.04155   0.00082  -0.00335   0.00367
  90        4S         -0.20959  -0.20328   0.00858  -0.00625   0.02926
  91        5S          0.87906   0.84331  -0.03473   0.01094  -0.13522
  92        6S         -1.42817  -1.34891   0.06650   0.04655   0.29123
  93        7PX         0.02487   0.01542  -0.01057   0.00259  -0.01250
  94        7PY        -0.00639  -0.00310  -0.00338   0.01502   0.02947
  95        7PZ        -0.00225   0.00396  -0.01273  -0.00095   0.01416
  96        8PX        -0.00974  -0.00672   0.00244   0.00022   0.00375
  97        8PY         0.00216   0.00058   0.00121  -0.00407  -0.00859
  98        8PZ         0.00055  -0.00119   0.00331   0.00021  -0.00381
  99        9PX        -0.03628  -0.01752   0.03302  -0.01638   0.03134
 100        9PY         0.01420   0.01031   0.00825  -0.04121  -0.07818
 101        9PZ         0.00694  -0.01133   0.03712   0.00308  -0.04038
 102       10PX        -0.13300  -0.09497  -0.02152   0.04826   0.01328
 103       10PY         0.00114  -0.01729  -0.00427   0.00371   0.00497
 104       10PZ        -0.01499   0.01501  -0.02543  -0.00455   0.02127
 105       11PX        -0.33199  -0.16509   0.07023  -0.00318   0.03486
 106       11PY         0.12005   0.10480   0.09153   0.03579  -0.05878
 107       11PZ         0.18495  -0.20813   0.12340   0.02497  -0.14459
 108 9   Cl 1S          0.00996  -0.01044  -0.00035  -0.00052  -0.00123
 109        2S          0.02688  -0.02827  -0.00090  -0.00151  -0.00322
 110        3S         -0.03998   0.04290   0.00091   0.00339   0.00379
 111        4S         -0.20337   0.21013   0.00879   0.00635   0.02954
 112        5S          0.85316  -0.87205  -0.03535  -0.01142  -0.13611
 113        6S         -1.38600   1.39566   0.06630  -0.04601   0.29108
 114        7PX        -0.00717   0.00074  -0.00506   0.00882   0.00188
 115        7PY        -0.01735   0.00926  -0.00167  -0.01088   0.03425
 116        7PZ         0.01691  -0.01424  -0.01610  -0.00565   0.00516
 117        8PX         0.00267  -0.00110   0.00127  -0.00204  -0.00032
 118        8PY         0.00641  -0.00351   0.00087   0.00338  -0.00994
 119        8PZ        -0.00687   0.00614   0.00402   0.00081  -0.00128
 120        9PX         0.01142   0.00779   0.01472  -0.02773  -0.00672
 121        9PY         0.03041  -0.01456   0.00238   0.02541  -0.09087
 122        9PZ        -0.02153   0.01770   0.04842   0.02273  -0.01645
 123       10PX         0.03020  -0.05324  -0.01107   0.02201   0.01087
 124       10PY         0.05776  -0.03639  -0.00034   0.02109   0.00440
 125       10PZ        -0.11333   0.07880  -0.03234  -0.03743   0.02238
 126       11PX         0.21200   0.15606   0.03416  -0.00576  -0.10306
 127       11PY         0.30631  -0.11519   0.07821  -0.04145  -0.10820
 128       11PZ        -0.13726   0.21358   0.14518  -0.02384  -0.06160
                          81        82        83        84        85
                           V         V         V         V         V
     Eigenvalues --     1.24054   1.25408   1.36263   1.37215   1.41597
   1 1   Si 1S          0.00002  -0.00058  -0.00069  -0.00000  -0.00000
   2        2S          0.00005  -0.00149  -0.00242  -0.00000  -0.00001
   3        3S         -0.00007   0.00223   0.01074  -0.00000   0.00001
   4        4S         -0.00050   0.01609  -0.00845   0.00002   0.00004
   5        5S          0.00245  -0.16565  -0.03237   0.00003  -0.00028
   6        6S         -0.00164   0.22972   0.40361  -0.00065   0.00089
   7        7PX         0.00718  -0.00731  -0.00291  -0.01777   0.05644
   8        7PY         0.00240  -0.02281   0.02685  -0.00625   0.01992
   9        7PZ        -0.00479  -0.02516   0.01077   0.01086  -0.03453
  10        8PX         0.01654  -0.01519  -0.00851  -0.04318   0.13709
  11        8PY         0.00554  -0.05583   0.06347  -0.01518   0.04837
  12        8PZ        -0.01106  -0.05716   0.02281   0.02638  -0.08387
  13        9PX        -0.08283   0.07225   0.06204   0.25727  -0.76818
  14        9PY        -0.02768   0.28856  -0.37003   0.09051  -0.27109
  15        9PZ         0.05536   0.28521  -0.11264  -0.15721   0.46991
  16       10PX         0.11625  -0.09327  -0.13300  -0.40403   1.01065
  17       10PY         0.03915  -0.35893   0.62034  -0.14235   0.35693
  18       10PZ        -0.07491  -0.36055   0.14127   0.24690  -0.61813
  19       11PX        -0.06113   0.12305   0.05869   0.16688  -0.09092
  20       11PY        -0.02083  -0.04874  -0.09756   0.05834  -0.03237
  21       11PZ         0.03861   0.17358   0.03933  -0.10171   0.05574
  22 2   H  1S          0.00005  -0.03250   0.03177   0.00007  -0.00004
  23        2S         -0.00051  -0.05430   0.13909   0.00014  -0.00007
  24        3S          0.00049  -0.16586  -0.09437  -0.00030  -0.00035
  25        4PX        -0.11927  -0.08619  -0.01080   0.18196  -0.55134
  26        4PY        -0.04306   0.06871  -0.06531   0.06428  -0.19464
  27        4PZ         0.07744  -0.10046  -0.05587  -0.11117   0.33717
  28 3   H  1S          0.00752  -0.02203  -0.00268   0.02866  -0.07906
  29        2S          0.01481  -0.03348  -0.03745   0.07770  -0.24618
  30        3S         -0.10886   0.00438  -0.00526   0.00819   0.05783
  31        4PX         0.12483  -0.02571   0.14702   0.17459  -0.41957
  32        4PY        -0.61135   0.24466  -0.22353   0.11301   0.01704
  33        4PZ        -0.27711   0.12109  -0.09351   0.12371   0.11588
  34 4   H  1S         -0.00765  -0.02207  -0.00269  -0.02875   0.07923
  35        2S         -0.01529  -0.03334  -0.03774  -0.07775   0.24631
  36        3S          0.10854   0.00482  -0.00500  -0.00744  -0.05764
  37        4PX        -0.02000  -0.00782  -0.01991   0.01063  -0.22649
  38        4PY         0.64485   0.25511  -0.28253  -0.04820  -0.24456
  39        4PZ         0.21005   0.11073   0.00890  -0.23684   0.27955
  40 5   O  1S         -0.00010  -0.06074   0.03406   0.00000  -0.00003
  41        2S         -0.00019  -0.12230   0.06742   0.00000  -0.00006
  42        2PX         0.00262  -0.00756  -0.00660  -0.00426   0.02927
  43        2PY         0.00074   0.01993  -0.00227  -0.00151   0.01034
  44        2PZ        -0.00189  -0.00096  -0.01202   0.00263  -0.01788
  45        3S          0.00143   0.95713  -0.46476  -0.00006   0.00054
  46        3PX         0.02550   0.00245   0.03145   0.00707   0.09815
  47        3PY         0.00806   0.05409  -0.13304   0.00249   0.03472
  48        3PZ        -0.01710   0.03482  -0.02473  -0.00425  -0.05991
  49        4S         -0.00136  -1.61255   0.29877   0.00025  -0.00092
  50        4PX        -0.09676   0.06932   0.06913  -0.08182  -0.32621
  51        4PY        -0.03255  -0.56940  -0.03763  -0.02854  -0.11549
  52        4PZ         0.06276  -0.21282   0.09075   0.04970   0.19930
  53 6   P  1S         -0.00002  -0.00073   0.00274  -0.00000   0.00001
  54        2S         -0.00005  -0.00192   0.00762  -0.00000   0.00002
  55        3S          0.00012   0.00307  -0.01682   0.00001  -0.00003
  56        4S          0.00029   0.01913  -0.04534   0.00003  -0.00017
  57        5S         -0.00100  -0.53076   0.23904  -0.00010   0.00030
  58        6S         -0.00168   2.34004  -0.18124  -0.00011   0.00179
  59        7PX         0.03295   0.06192   0.05353   0.13984   0.04749
  60        7PY         0.01144  -0.00989  -0.14045   0.04917   0.01668
  61        7PZ        -0.02058   0.09540   0.00685  -0.08543  -0.02919
  62        8PX         0.07599   0.14756   0.12533   0.32554   0.11273
  63        8PY         0.02635  -0.02683  -0.32692   0.11445   0.03960
  64        8PZ        -0.04750   0.22549   0.01715  -0.19887  -0.06927
  65        9PX        -0.31675  -0.66215  -0.55847  -1.44228  -0.52000
  66        9PY        -0.10968   0.15255   1.41711  -0.50707  -0.18264
  67        9PZ         0.19835  -0.99347  -0.09931   0.88112   0.31929
  68       10PX         0.26815   0.89573   0.63346   1.54998   0.64200
  69       10PY         0.09238  -0.37769  -1.40622   0.54500   0.22520
  70       10PZ        -0.17003   1.24658   0.22869  -0.94706  -0.39306
  71       11PX         0.15231  -0.13530  -0.10430  -0.41193  -0.00739
  72       11PY         0.05246  -0.10508   0.98188  -0.14513  -0.00140
  73       11PZ        -0.09711  -0.28326   0.39457   0.25137   0.00699
  74 7   O  1S          0.00031  -0.03035  -0.04729   0.00002  -0.00019
  75        2S          0.00062  -0.06188  -0.09402   0.00005  -0.00038
  76        2PX         0.00866  -0.00871  -0.01219  -0.00309   0.00302
  77        2PY         0.00290  -0.00960   0.01439  -0.00109   0.00106
  78        2PZ        -0.00525  -0.01986  -0.01167   0.00190  -0.00188
  79        3S         -0.00479   0.51938   0.69920  -0.00037   0.00288
  80        3PX         0.03216   0.01280  -0.03790   0.02028   0.02470
  81        3PY         0.01079  -0.03052  -0.00044   0.00712   0.00859
  82        3PZ        -0.01998   0.00311  -0.06224  -0.01237  -0.01539
  83        4S          0.00845  -1.17503  -0.93995   0.00060  -0.00420
  84        4PX        -0.09552   0.11076   0.04585  -0.13027  -0.10007
  85        4PY        -0.03343   0.39435   0.04420  -0.04582  -0.03491
  86        4PZ         0.05685   0.40914   0.10030   0.07943   0.06194
  87 8   Cl 1S          0.00248   0.00707   0.00151   0.00422  -0.00067
  88        2S          0.00716   0.01942   0.00435   0.01206  -0.00176
  89        3S         -0.01516  -0.03205  -0.00904  -0.02443   0.00216
  90        4S         -0.03516  -0.13633  -0.02179  -0.06389   0.01697
  91        5S          0.11632   0.55742   0.04767   0.17482  -0.11481
  92        6S          0.00346  -0.81826   0.06932  -0.01251   0.24992
  93        7PX        -0.00014   0.05579   0.01332   0.03407   0.00697
  94        7PY         0.03305  -0.00201  -0.04006   0.00077   0.00768
  95        7PZ         0.02211   0.02967   0.00185  -0.03597  -0.01728
  96        8PX         0.00182  -0.01263  -0.00044  -0.00173   0.00067
  97        8PY        -0.00919   0.00053   0.01081  -0.00035  -0.00168
  98        8PZ        -0.00624  -0.00799  -0.00044   0.00967   0.00480
  99        9PX        -0.01676  -0.18051  -0.06981  -0.17196  -0.04619
 100        9PY        -0.08992   0.00637   0.11586  -0.00194  -0.02564
 101        9PZ        -0.05881  -0.08473  -0.00678   0.10508   0.05013
 102       10PX         0.09239   0.15185   0.17022   0.39243   0.12856
 103       10PY         0.00105  -0.01209  -0.03387   0.00589   0.02608
 104       10PZ        -0.01263   0.03622   0.01575  -0.03712  -0.01280
 105       11PX        -0.04443  -0.28016   0.01644   0.00681   0.09421
 106       11PY         0.10000   0.08621  -0.16208  -0.04915  -0.04273
 107       11PZ         0.15569  -0.05068  -0.13431  -0.02960  -0.01411
 108 9   Cl 1S         -0.00249   0.00706   0.00150  -0.00422   0.00066
 109        2S         -0.00721   0.01940   0.00432  -0.01206   0.00174
 110        3S          0.01527  -0.03200  -0.00897   0.02443  -0.00212
 111        4S          0.03539  -0.13627  -0.02159   0.06390  -0.01691
 112        5S         -0.11694   0.55739   0.04680  -0.17480   0.11466
 113        6S         -0.00449  -0.81922   0.07042   0.01244  -0.24994
 114        7PX        -0.00277   0.00639   0.01580   0.04119   0.02005
 115        7PY        -0.03433  -0.01961  -0.03912   0.02569   0.00175
 116        7PZ        -0.02076   0.05969   0.00032  -0.01000   0.00076
 117        8PX         0.00144  -0.00251  -0.00528  -0.00864  -0.00448
 118        8PY         0.01043   0.00415   0.00910  -0.00330   0.00036
 119        8PZ         0.00435  -0.01414   0.00252  -0.00334  -0.00247
 120        9PX         0.00065  -0.01145  -0.03635  -0.14458  -0.06853
 121        9PY         0.08483   0.06639   0.12738  -0.10930  -0.01451
 122        9PZ         0.06999  -0.18748  -0.02720   0.08828   0.01998
 123       10PX         0.04187  -0.01561  -0.02853   0.16526   0.06612
 124       10PY         0.04665  -0.07081  -0.10346   0.18996   0.04242
 125       10PZ        -0.07050   0.13801   0.13713  -0.30358  -0.10615
 126       11PX        -0.09375   0.01207  -0.03928   0.00343   0.02289
 127       11PY        -0.14861   0.18844  -0.18187   0.05303   0.08315
 128       11PZ        -0.06905  -0.22990  -0.10018   0.02359  -0.05868
                          86        87        88        89        90
                           V         V         V         V         V
     Eigenvalues --     1.42036   1.49853   1.61034   1.63166   1.66562
   1 1   Si 1S         -0.00025  -0.00225   0.00065   0.00000  -0.00136
   2        2S         -0.00063  -0.00588   0.00180   0.00001  -0.00377
   3        3S          0.00071   0.01061  -0.00431  -0.00002   0.00888
   4        4S          0.00859   0.05266  -0.01051  -0.00005   0.02562
   5        5S         -0.07629  -0.23263   0.18576   0.00025  -0.28803
   6        6S          0.10390   0.02091  -0.68776   0.00001   0.67514
   7        7PX        -0.02150  -0.03388   0.02375  -0.07381   0.03023
   8        7PY         0.02261   0.07194  -0.05125  -0.02606  -0.03967
   9        7PZ        -0.02198  -0.01398   0.00926   0.04516   0.02648
  10        8PX        -0.05135  -0.08009   0.04442  -0.15087   0.06195
  11        8PY         0.05572   0.16540  -0.11553  -0.05326  -0.07078
  12        8PZ        -0.05150  -0.03577   0.00598   0.09230   0.06033
  13        9PX         0.28104   0.45277  -0.12155   0.61343  -0.26526
  14        9PY        -0.31321  -0.87746   0.61425   0.21659   0.14572
  15        9PZ         0.27690   0.23569   0.15550  -0.37529  -0.34873
  16       10PX        -0.36329  -0.63819  -0.31579   0.03610   0.06014
  17       10PY         0.40848   0.88364  -0.69608   0.01268   0.65414
  18       10PZ        -0.35515  -0.53670  -0.91729  -0.02209   0.47378
  19       11PX        -0.02174   0.11640  -0.08935   0.36141  -0.27140
  20       11PY         0.12502  -0.29479   0.29568   0.12742   0.42426
  21       11PZ         0.03618   0.02089   0.02438  -0.22131  -0.19807
  22 2   H  1S          0.02321   0.09232  -0.01425  -0.00008   0.12872
  23        2S          0.12895   0.24399  -0.11925   0.00009  -0.03277
  24        3S          0.07262  -0.21281   0.47717  -0.00052   0.66407
  25        4PX         0.10998   0.23876   0.13794  -0.31089  -0.29092
  26        4PY        -0.10316  -0.22702   0.45279  -0.11045   0.59736
  27        4PZ         0.11865   0.26084   0.48687   0.19040  -0.12935
  28 3   H  1S         -0.03252  -0.04583  -0.06209  -0.07988  -0.07019
  29        2S         -0.09272  -0.11775   0.01015   0.10709   0.07345
  30        3S          0.01971  -0.00189  -0.08003  -0.66168  -0.50476
  31        4PX         0.23730   0.25830   0.44048   0.03804   0.24973
  32        4PY        -0.15833  -0.21485   0.38790   0.35695  -0.31785
  33        4PZ         0.12949   0.20798   0.04103  -0.65481  -0.43383
  34 4   H  1S         -0.03265  -0.04559  -0.06199   0.07996  -0.07012
  35        2S         -0.09325  -0.11670   0.01001  -0.10716   0.07371
  36        3S          0.01972  -0.00206  -0.07971   0.66191  -0.50375
  37        4PX         0.10121   0.18477  -0.29574   0.71601  -0.28689
  38        4PY        -0.20591  -0.24152   0.12738  -0.09010  -0.50796
  39        4PZ         0.21213   0.25387   0.49227   0.19312  -0.10424
  40 5   O  1S         -0.04121   0.01852   0.02933  -0.00003  -0.01944
  41        2S         -0.08342   0.03777   0.05973  -0.00006  -0.03963
  42        2PX        -0.00791   0.00119   0.00283   0.02817  -0.01479
  43        2PY         0.03464   0.02242   0.02025   0.00999   0.02159
  44        2PZ         0.00712   0.01478   0.01631  -0.01727  -0.01182
  45        3S          0.65510  -0.32204  -0.50211   0.00056   0.32956
  46        3PX        -0.04757   0.00263   0.01224   0.07685  -0.05032
  47        3PY         0.19619   0.10901   0.05240   0.02723   0.10477
  48        3PZ         0.03545   0.06681   0.05024  -0.04712  -0.02212
  49        4S         -0.96203   0.64399   0.96407  -0.00110  -0.57574
  50        4PX         0.14974  -0.09090  -0.11682  -0.21516   0.15258
  51        4PY        -0.60482  -0.20811  -0.33434  -0.07661  -0.09844
  52        4PZ        -0.10427  -0.26800  -0.38355   0.13202   0.19308
  53 6   P  1S          0.00106   0.00095  -0.00020  -0.00000   0.00287
  54        2S          0.00204   0.00295  -0.00032  -0.00000   0.00816
  55        3S          0.00319  -0.00907  -0.00127   0.00001  -0.01975
  56        4S         -0.04333  -0.00978   0.01104  -0.00000  -0.04437
  57        5S         -0.22429   0.20850  -0.01864  -0.00034   0.24327
  58        6S          1.86499  -0.54513  -0.11739   0.00176  -0.16734
  59        7PX        -0.05792   0.03845  -0.00011   0.01297   0.00687
  60        7PY         0.04183   0.04592  -0.02710   0.00454   0.05260
  61        7PZ        -0.07057   0.08935  -0.01577  -0.00800   0.04149
  62        8PX        -0.13197   0.08835  -0.00077   0.02957   0.01585
  63        8PY         0.09640   0.11048  -0.06192   0.01035   0.11895
  64        8PZ        -0.16017   0.20816  -0.03688  -0.01823   0.09435
  65        9PX         0.55348  -0.39683   0.00893  -0.14098  -0.08371
  66        9PY        -0.41716  -0.51699   0.28345  -0.04926  -0.55307
  67        9PZ         0.66410  -0.94690   0.17769   0.08688  -0.45516
  68       10PX        -0.34753   0.41255  -0.02714   0.16576   0.15957
  69       10PY         0.31154   0.57868  -0.31889   0.05733   0.54928
  70       10PZ        -0.38692   1.00808  -0.22807  -0.10192   0.57769
  71       11PX         0.29448  -0.12107   0.01303   0.03199   0.04472
  72       11PY         0.12613  -0.21390   0.07687   0.01144  -0.11608
  73       11PZ         0.55467  -0.32155   0.06540  -0.01956   0.00548
  74 7   O  1S         -0.07511   0.03395   0.00081  -0.00002   0.00079
  75        2S         -0.15084   0.06732   0.00177  -0.00005   0.00115
  76        2PX        -0.00779  -0.00169  -0.00012   0.00259   0.00017
  77        2PY        -0.01275   0.01663   0.00875   0.00091  -0.00264
  78        2PZ        -0.02008   0.00679   0.00482  -0.00159  -0.00127
  79        3S          1.16628  -0.48433  -0.02452   0.00035   0.01659
  80        3PX        -0.05168   0.03208  -0.00583   0.00956   0.01550
  81        3PY        -0.07972   0.09066   0.01030   0.00331   0.01422
  82        3PZ        -0.13037   0.10464  -0.00366  -0.00594   0.03351
  83        4S         -1.79097   0.45856   0.10757  -0.00047  -0.20004
  84        4PX         0.18463   0.01301  -0.02735  -0.03571   0.04020
  85        4PY         0.25051  -0.07731  -0.06594  -0.01244   0.06749
  86        4PZ         0.44597  -0.02299  -0.08260   0.02191   0.10482
  87 8   Cl 1S          0.00192   0.00027  -0.00034   0.00096  -0.00003
  88        2S          0.00500   0.00101  -0.00090   0.00283  -0.00011
  89        3S         -0.00554  -0.00420   0.00114  -0.00639   0.00043
  90        4S         -0.04914   0.00457   0.00801  -0.01303  -0.00007
  91        5S          0.26977  -0.05813  -0.03417   0.04719  -0.00971
  92        6S         -0.55896   0.21544   0.04081  -0.00132   0.04936
  93        7PX         0.03100  -0.01857  -0.00936  -0.00481  -0.00160
  94        7PY         0.00643   0.01252   0.01658  -0.00489  -0.00072
  95        7PZ        -0.00410   0.02424   0.00250  -0.00929   0.02717
  96        8PX        -0.01096   0.00704   0.00209   0.00200   0.00100
  97        8PY        -0.00189  -0.00381  -0.00368   0.00080  -0.00004
  98        8PZ         0.00111  -0.00657  -0.00034   0.00205  -0.00691
  99        9PX        -0.06536   0.03618   0.03289   0.00865  -0.00120
 100        9PY        -0.01816  -0.03523  -0.05757   0.01922   0.00370
 101        9PZ         0.01139  -0.07365  -0.01010   0.03288  -0.08957
 102       10PX        -0.09975   0.08398  -0.03367   0.02837   0.03466
 103       10PY         0.00426   0.00354   0.05087  -0.02923  -0.00384
 104       10PZ         0.00069   0.03563   0.01416  -0.03628   0.06060
 105       11PX        -0.25622   0.06233   0.03713   0.00283  -0.00590
 106       11PY        -0.01912   0.01420  -0.01065   0.04113  -0.00647
 107       11PZ        -0.09894  -0.00939  -0.00247   0.06274  -0.01673
 108 9   Cl 1S          0.00192   0.00027  -0.00033  -0.00096  -0.00005
 109        2S          0.00498   0.00100  -0.00087  -0.00282  -0.00016
 110        3S         -0.00551  -0.00418   0.00109   0.00637   0.00053
 111        4S         -0.04903   0.00461   0.00790   0.01293   0.00017
 112        5S          0.26911  -0.05828  -0.03367  -0.04666  -0.01082
 113        6S         -0.55779   0.21540   0.04029   0.00016   0.05053
 114        7PX        -0.01692   0.02011  -0.00246   0.00358   0.02288
 115        7PY        -0.01033   0.02617   0.01899   0.00438   0.00795
 116        7PZ         0.02506   0.00059  -0.00157   0.01007   0.01205
 117        8PX         0.00551  -0.00593   0.00071  -0.00060  -0.00592
 118        8PY         0.00388  -0.00838  -0.00416  -0.00028  -0.00248
 119        8PZ        -0.00891   0.00136   0.00046  -0.00291  -0.00264
 120        9PX         0.04021  -0.05559   0.00727  -0.01463  -0.07386
 121        9PY         0.01874  -0.06770  -0.06650  -0.02107  -0.02208
 122        9PZ        -0.05285  -0.01751   0.00508  -0.02929  -0.04465
 123       10PX         0.03189  -0.00087  -0.00073   0.02536   0.03930
 124       10PY         0.05053  -0.02602   0.06226   0.04798  -0.00183
 125       10PZ        -0.07948   0.08739  -0.00569   0.00344   0.05753
 126       11PX         0.01427  -0.03557  -0.00935  -0.03095  -0.00918
 127       11PY         0.07550  -0.02024  -0.02673  -0.05080  -0.00845
 128       11PZ        -0.26406   0.05017   0.02593  -0.04599  -0.01539
                          91        92        93        94        95
                           V         V         V         V         V
     Eigenvalues --     1.72234   2.02313   2.07806   2.08567   2.10067
   1 1   Si 1S          0.01455   0.00000  -0.00000  -0.00023   0.00000
   2        2S          0.04079   0.00000  -0.00000  -0.00061   0.00001
   3        3S         -0.10462  -0.00001   0.00001   0.00107  -0.00003
   4        4S         -0.21073  -0.00002  -0.00000   0.00643  -0.00006
   5        5S          0.59870   0.00020  -0.00012  -0.02867   0.00047
   6        6S          1.24543  -0.00047   0.00048   0.01898  -0.00022
   7        7PX         0.01290   0.00116  -0.00275  -0.00005  -0.00297
   8        7PY         0.03168   0.00041  -0.00095  -0.00082  -0.00105
   9        7PZ         0.03933  -0.00071   0.00170  -0.00054   0.00182
  10        8PX         0.02492   0.00039  -0.00814  -0.00066  -0.00537
  11        8PY         0.06483   0.00012  -0.00284  -0.00031  -0.00190
  12        8PZ         0.07805  -0.00023   0.00501  -0.00121   0.00329
  13        9PX        -0.11087  -0.00106   0.05140   0.00615   0.02561
  14        9PY        -0.32710  -0.00023   0.01801  -0.01239   0.00909
  15        9PZ        -0.36941   0.00060  -0.03161   0.00248  -0.01567
  16       10PX         0.08749   0.03065  -0.03427  -0.00395  -0.00992
  17       10PY         0.36711   0.01050  -0.01214   0.05132  -0.00367
  18       10PZ         0.35413  -0.01874   0.02109   0.02351   0.00612
  19       11PX         0.02240  -0.04980  -0.00245  -0.05742  -0.02003
  20       11PY        -0.43908  -0.01760  -0.00190   0.06194  -0.00849
  21       11PZ        -0.21642   0.03053   0.00198  -0.05744   0.01270
  22 2   H  1S         -0.27788  -0.00019  -0.00003   0.01691   0.00010
  23        2S          0.30699   0.00015   0.00013  -0.01539  -0.00004
  24        3S         -0.86116  -0.00006  -0.00116   0.10858  -0.00107
  25        4PX         0.21866  -0.00307  -0.01502  -0.01287  -0.01664
  26        4PY        -0.62552  -0.00114  -0.00557   0.03020  -0.00608
  27        4PZ        -0.00403   0.00191   0.00921  -0.00358   0.01021
  28 3   H  1S         -0.30273   0.09265   0.15857  -0.04854   0.03673
  29        2S          0.25405  -0.10971  -0.18816   0.06402  -0.07159
  30        3S         -0.56805   0.08741   0.16962  -0.09770   0.18044
  31        4PX         0.18319  -0.01137   0.01105  -0.00052  -0.00882
  32        4PY         0.28116   0.02084   0.06102  -0.03337   0.07965
  33        4PZ        -0.50724   0.01102   0.02053  -0.01971   0.02064
  34 4   H  1S         -0.30273  -0.09247  -0.15865  -0.04981  -0.03710
  35        2S          0.25418   0.10965   0.18841   0.06555   0.07235
  36        3S         -0.56818  -0.08708  -0.16903  -0.09919  -0.18032
  37        4PX        -0.60790  -0.00303   0.01559  -0.00013   0.01749
  38        4PY         0.00151  -0.02571  -0.05137  -0.03355  -0.07646
  39        4PZ        -0.02274  -0.00209  -0.03647  -0.02022  -0.02607
  40 5   O  1S         -0.01687   0.00000   0.00002  -0.00425  -0.00000
  41        2S         -0.03412   0.00001   0.00005  -0.00896  -0.00001
  42        2PX        -0.01525  -0.01080  -0.00671  -0.00666   0.00030
  43        2PY        -0.00966  -0.00380  -0.00242   0.00877   0.00010
  44        2PZ        -0.03050   0.00661   0.00416  -0.00573  -0.00020
  45        3S          0.29124  -0.00007  -0.00052   0.09038   0.00013
  46        3PX        -0.03262  -0.02458  -0.02611  -0.01197   0.00598
  47        3PY        -0.01853  -0.00864  -0.00933   0.02504   0.00210
  48        3PZ        -0.06404   0.01502   0.01605  -0.00473  -0.00369
  49        4S         -0.56562   0.00012   0.00122  -0.21667  -0.00041
  50        4PX         0.14845   0.08424   0.09827   0.07787  -0.02073
  51        4PY         0.12857   0.02954   0.03589  -0.17938  -0.00784
  52        4PZ         0.31688  -0.05151  -0.06052   0.02256   0.01288
  53 6   P  1S         -0.00010  -0.00000  -0.00001   0.00165  -0.00000
  54        2S         -0.00048  -0.00000  -0.00003   0.00512  -0.00000
  55        3S          0.00275   0.00001   0.00009  -0.01654   0.00000
  56        4S         -0.00465   0.00001   0.00005  -0.00813   0.00002
  57        5S         -0.01648  -0.00007   0.00016  -0.03773  -0.00037
  58        6S          0.19728   0.00009  -0.00204   0.39540   0.00140
  59        7PX         0.00042   0.03433   0.00541   0.01243  -0.00029
  60        7PY         0.01238   0.01204   0.00199  -0.00613  -0.00018
  61        7PZ         0.00778  -0.02097  -0.00343   0.01677   0.00022
  62        8PX         0.00118   0.05801   0.00314   0.02685   0.00781
  63        8PY         0.02620   0.02034   0.00130  -0.01350   0.00256
  64        8PZ         0.01694  -0.03544  -0.00220   0.03625  -0.00468
  65        9PX        -0.00952  -0.21916   0.02392  -0.14415  -0.08345
  66        9PY        -0.11300  -0.07680   0.00730   0.07360  -0.02830
  67        9PZ        -0.08025   0.13392  -0.01308  -0.19487   0.05049
  68       10PX         0.03395   0.08357  -0.12493   0.22932   0.22085
  69       10PY         0.07163   0.02913  -0.04203  -0.12602   0.07601
  70       10PZ         0.09639  -0.05116   0.07389   0.30676  -0.13413
  71       11PX        -0.02710  -0.15533   0.04190  -0.16007  -0.17810
  72       11PY        -0.02903  -0.05447   0.01340   0.08613  -0.06144
  73       11PZ        -0.06044   0.09483  -0.02389  -0.21480   0.10780
  74 7   O  1S          0.00009  -0.00000   0.00002  -0.00430  -0.00001
  75        2S          0.00016  -0.00000   0.00005  -0.00904  -0.00002
  76        2PX         0.00055  -0.00965  -0.00295  -0.00412   0.00362
  77        2PY        -0.00891  -0.00339  -0.00106   0.00161   0.00129
  78        2PZ        -0.00420   0.00589   0.00184  -0.00576  -0.00224
  79        3S          0.00267   0.00000  -0.00047   0.09047   0.00015
  80        3PX         0.00472  -0.02609  -0.01002  -0.00884   0.02497
  81        3PY        -0.01456  -0.00917  -0.00351  -0.00355   0.00876
  82        3PZ        -0.00060   0.01593   0.00622  -0.01620  -0.01530
  83        4S         -0.03481   0.00004   0.00109  -0.21672  -0.00030
  84        4PX         0.00478   0.08607   0.03517   0.06802  -0.09120
  85        4PY         0.05565   0.03023   0.01210   0.07180  -0.03196
  86        4PZ         0.03971  -0.05260  -0.02234   0.15155   0.05592
  87 8   Cl 1S         -0.00088  -0.00083  -0.00072   0.00090   0.00041
  88        2S         -0.00252  -0.00213  -0.00206   0.00268   0.00119
  89        3S          0.00514   0.00224   0.00426  -0.00639  -0.00255
  90        4S          0.01452   0.02015   0.01096  -0.01232  -0.00578
  91        5S         -0.07004  -0.07642  -0.03892   0.06664   0.01576
  92        6S          0.09030   0.05773   0.03200  -0.14852  -0.03465
  93        7PX        -0.00087  -0.30570  -0.13142  -0.05727   0.13249
  94        7PY         0.00685  -0.09711   0.32179   0.18394   0.11295
  95        7PZ         0.00678   0.15963  -0.06308  -0.30130   0.31208
  96        8PX         0.00032   0.07533   0.03212   0.01460  -0.03224
  97        8PY        -0.00168   0.02362  -0.07922  -0.04540  -0.02778
  98        8PZ        -0.00176  -0.03887   0.01557   0.07427  -0.07691
  99        9PX         0.00170   1.14447   0.50282   0.21430  -0.51125
 100        9PY        -0.02397   0.36384  -1.21874  -0.69694  -0.43081
 101        9PZ        -0.02287  -0.59874   0.23819   1.14173  -1.18906
 102       10PX         0.00414  -1.11512  -0.51792  -0.20247   0.53796
 103       10PY         0.02484  -0.36064   1.22024   0.69247   0.44084
 104       10PZ         0.01882   0.59688  -0.23404  -1.13468   1.20764
 105       11PX        -0.02113   0.44629   0.17170   0.04544  -0.17527
 106       11PY        -0.07040   0.17212  -0.49441  -0.25097  -0.19198
 107       11PZ        -0.03619  -0.29870   0.07735   0.41771  -0.52324
 108 9   Cl 1S         -0.00088   0.00083   0.00070   0.00091  -0.00041
 109        2S         -0.00252   0.00213   0.00202   0.00271  -0.00118
 110        3S          0.00514  -0.00223  -0.00417  -0.00645   0.00255
 111        4S          0.01454  -0.02014  -0.01080  -0.01247   0.00578
 112        5S         -0.07017   0.07641   0.03808   0.06714  -0.01574
 113        6S          0.09063  -0.05775  -0.03020  -0.14901   0.03420
 114        7PX         0.00267  -0.27898   0.16220  -0.30993  -0.15911
 115        7PY         0.00823  -0.10796  -0.31411   0.09109  -0.12022
 116        7PZ         0.00475   0.19733   0.04790  -0.14278  -0.29732
 117        8PX        -0.00077   0.06821  -0.04004   0.07626   0.03938
 118        8PY        -0.00209   0.02673   0.07721  -0.02273   0.02977
 119        8PZ        -0.00113  -0.04877  -0.01162   0.03558   0.07292
 120        9PX        -0.00819   1.04546  -0.61202   1.17533   0.60381
 121        9PY        -0.02790   0.40429   1.19222  -0.34376   0.45540
 122        9PZ        -0.01728  -0.73828  -0.18515   0.53876   1.13822
 123       10PX         0.00250  -1.03254   0.60416  -1.17155  -0.60527
 124       10PY         0.02456  -0.39264  -1.20166   0.33632  -0.45652
 125       10PZ         0.02013   0.71432   0.19478  -0.52653  -1.17213
 126       11PX         0.01051   0.47510  -0.24281   0.43855   0.28085
 127       11PY        -0.05922   0.15112   0.47364  -0.10685   0.22571
 128       11PZ        -0.05551  -0.26382  -0.03863   0.17145   0.46066
                          96        97        98        99       100
                           V         V         V         V         V
     Eigenvalues --     2.12826   2.18233   2.33087   2.33381   2.47068
   1 1   Si 1S         -0.00111  -0.00095   0.00108  -0.00001  -0.01000
   2        2S         -0.00382  -0.00278   0.00319  -0.00002  -0.02785
   3        3S          0.01665   0.00817  -0.00978   0.00008   0.06955
   4        4S         -0.01000   0.01319  -0.01258   0.00010   0.19763
   5        5S         -0.00719  -0.20618   0.03826  -0.00055  -0.69944
   6        6S          0.32092   0.61399   0.11859   0.00044  -0.27658
   7        7PX        -0.00278  -0.00016  -0.00116  -0.00194  -0.00610
   8        7PY        -0.00286   0.00921   0.00757  -0.00070  -0.00391
   9        7PZ        -0.00620   0.00500   0.00249   0.00118  -0.01222
  10        8PX        -0.00418  -0.00159   0.01198   0.02035  -0.01339
  11        8PY        -0.00788   0.01990  -0.00990   0.00723  -0.01447
  12        8PZ        -0.01135   0.00878   0.01371  -0.01253  -0.03022
  13        9PX         0.01601   0.02228  -0.05542  -0.10727   0.07592
  14        9PY         0.05933  -0.15008   0.02381  -0.03805   0.06322
  15        9PZ         0.06017  -0.04950  -0.07595   0.06603   0.16047
  16       10PX         0.01040  -0.06610  -0.24345  -0.33366  -0.02961
  17       10PY        -0.05101   0.28155   0.51242  -0.11949   0.17027
  18       10PZ        -0.01261   0.05331  -0.09966   0.20515   0.04950
  19       11PX         0.06834  -0.04162   0.28326   0.44316   0.11766
  20       11PY        -0.14252   0.06880  -0.56473   0.15831  -0.52719
  21       11PZ         0.02962  -0.02702   0.13353  -0.27229  -0.11151
  22 2   H  1S         -0.03639   0.06572  -1.23331   0.00302  -0.99786
  23        2S          0.03726  -0.04776   1.88416  -0.00464   1.61558
  24        3S         -0.22387   0.04705  -1.37610   0.00332  -0.89053
  25        4PX        -0.00057  -0.00768  -0.00419   0.10562  -0.13023
  26        4PY        -0.02188   0.01835   0.08140   0.03721   0.30684
  27        4PZ        -0.01362  -0.00181   0.03953  -0.06485  -0.03544
  28 3   H  1S          0.00805  -0.03308   0.70902  -1.12010  -0.82885
  29        2S          0.00293   0.02313  -1.06670   1.67870   1.28515
  30        3S         -0.09897  -0.18953   0.65673  -1.14629  -0.28752
  31        4PX        -0.03604   0.02268   0.12520   0.04606  -0.14200
  32        4PY        -0.05475  -0.00514  -0.04772  -0.04302  -0.18187
  33        4PZ        -0.00855  -0.02099  -0.08487   0.09031   0.24263
  34 4   H  1S          0.00721  -0.03359   0.71505   1.11563  -0.82957
  35        2S          0.00397   0.02415  -1.07561  -1.67185   1.28634
  36        3S         -0.09908  -0.19094   0.66269   1.14190  -0.28859
  37        4PX         0.03081  -0.02247  -0.08899  -0.07801   0.33124
  38        4PY        -0.03108  -0.02136  -0.12321   0.03208  -0.01465
  39        4PZ        -0.04917   0.00654   0.04562  -0.07064  -0.04704
  40 5   O  1S         -0.00076   0.01366  -0.00246   0.00002   0.01163
  41        2S         -0.00190   0.02778  -0.00492   0.00003   0.02326
  42        2PX        -0.00323   0.00576  -0.00243  -0.00519  -0.00095
  43        2PY        -0.00849  -0.01499   0.00955  -0.00188   0.02101
  44        2PZ        -0.01018   0.00085   0.00156   0.00317   0.01055
  45        3S          0.02957  -0.25439   0.04373  -0.00030  -0.21180
  46        3PX        -0.01109   0.01966  -0.01397  -0.02706   0.01152
  47        3PY        -0.01959  -0.04577   0.03456  -0.00969   0.03807
  48        3PZ        -0.02940   0.00591  -0.00271   0.01658   0.04072
  49        4S         -0.07891   0.51047  -0.06268   0.00050   0.35703
  50        4PX         0.08684  -0.10249   0.05481   0.11004  -0.04819
  51        4PY        -0.05240   0.31372  -0.11494   0.03939  -0.22441
  52        4PZ         0.11199   0.01238   0.02243  -0.06743  -0.20781
  53 6   P  1S         -0.00092  -0.00526   0.00133  -0.00000  -0.00216
  54        2S         -0.00290  -0.01666   0.00402  -0.00001  -0.00686
  55        3S          0.00955   0.05736  -0.01192   0.00003   0.02332
  56        4S          0.00512   0.00597  -0.01477   0.00005   0.01051
  57        5S         -0.05198   0.31091   0.13370  -0.00024  -0.16719
  58        6S          0.05346  -1.28720  -0.07160  -0.00060   0.45415
  59        7PX         0.00055  -0.01137   0.00382   0.00399  -0.00088
  60        7PY        -0.02183   0.01190   0.00950   0.00138  -0.00432
  61        7PZ        -0.01165  -0.01177   0.01169  -0.00249  -0.00391
  62        8PX         0.00120  -0.01430   0.00840   0.00509  -0.00135
  63        8PY        -0.05042   0.01799   0.01805   0.00174  -0.00829
  64        8PZ        -0.02699  -0.01305   0.02410  -0.00323  -0.00699
  65        9PX        -0.00625   0.03834  -0.05236  -0.01292   0.00591
  66        9PY         0.28692  -0.06743  -0.08999  -0.00430   0.04618
  67        9PZ         0.15437   0.02386  -0.13748   0.00862   0.03632
  68       10PX         0.00519  -0.03220   0.10605  -0.01841   0.01194
  69       10PY        -0.47183   0.05537   0.04437  -0.00653  -0.08771
  70       10PZ        -0.26187  -0.02057   0.19959   0.00991  -0.03138
  71       11PX        -0.06367   0.10029  -0.01518  -0.10458  -0.00486
  72       11PY         0.44684   0.12353   0.01977  -0.03674  -0.08941
  73       11PZ         0.15185   0.23477  -0.01225   0.06438  -0.05862
  74 7   O  1S         -0.00031   0.01255   0.00041   0.00001   0.00101
  75        2S         -0.00018   0.02563   0.00063   0.00001   0.00183
  76        2PX        -0.00057   0.00911  -0.00219  -0.00814  -0.00069
  77        2PY         0.00323   0.00448   0.00526  -0.00288   0.00006
  78        2PZ         0.00094   0.01749  -0.00050   0.00500  -0.00107
  79        3S         -0.01269  -0.23404   0.00223  -0.00017  -0.01326
  80        3PX         0.00572   0.02864   0.00125  -0.01141  -0.00063
  81        3PY        -0.00238   0.01756   0.00615  -0.00402  -0.00291
  82        3PZ         0.00809   0.05700   0.00567   0.00700  -0.00271
  83        4S          0.06071   0.46669  -0.04848   0.00051   0.00028
  84        4PX        -0.06438  -0.13405   0.01817   0.04810   0.00097
  85        4PY        -0.05352  -0.11566   0.01019   0.01680   0.01971
  86        4PZ        -0.13655  -0.28603   0.03522  -0.02990   0.01292
  87 8   Cl 1S         -0.00031  -0.00211  -0.00034   0.00036  -0.00067
  88        2S         -0.00090  -0.00631  -0.00103   0.00101  -0.00202
  89        3S          0.00209   0.01486   0.00262  -0.00173   0.00501
  90        4S          0.00410   0.03300   0.00434  -0.00830   0.00896
  91        5S         -0.01691  -0.23488  -0.03478   0.05447  -0.05231
  92        6S         -0.00248   0.52956   0.08865  -0.12234   0.05797
  93        7PX         0.00619   0.34924   0.01544  -0.04136   0.00171
  94        7PY         0.30376   0.02580   0.00266   0.04331  -0.01207
  95        7PZ         0.18245  -0.05290  -0.01250   0.01623   0.00435
  96        8PX        -0.00157  -0.08715  -0.00367   0.01043  -0.00058
  97        8PY        -0.07504  -0.00668  -0.00059  -0.01080   0.00293
  98        8PZ        -0.04515   0.01350   0.00328  -0.00393  -0.00119
  99        9PX        -0.02314  -1.36703  -0.06538   0.16894  -0.00603
 100        9PY        -1.16571  -0.09810  -0.01053  -0.17472   0.05063
 101        9PZ        -0.69958   0.20356   0.04984  -0.06615  -0.01839
 102       10PX         0.02020   1.46281   0.08642  -0.20010  -0.00118
 103       10PY         1.19987   0.09318   0.00930   0.19345  -0.05942
 104       10PZ         0.71673  -0.19974  -0.05199   0.07639   0.02649
 105       11PX        -0.01287  -0.33488   0.01467   0.09975  -0.02735
 106       11PY        -0.56549  -0.03588  -0.00225  -0.04161  -0.01616
 107       11PZ        -0.31296  -0.00381  -0.00664  -0.02877  -0.06204
 108 9   Cl 1S         -0.00030  -0.00211  -0.00034  -0.00036  -0.00066
 109        2S         -0.00090  -0.00631  -0.00105  -0.00101  -0.00199
 110        3S          0.00207   0.01486   0.00268   0.00173   0.00493
 111        4S          0.00407   0.03301   0.00445   0.00833   0.00885
 112        5S         -0.01679  -0.23490  -0.03545  -0.05459  -0.05167
 113        6S         -0.00271   0.52954   0.08969   0.12262   0.05735
 114        7PX         0.00519  -0.17274  -0.01657  -0.00669   0.00854
 115        7PY         0.30280  -0.15761  -0.00903  -0.06013  -0.00953
 116        7PZ         0.18446   0.26606   0.00709   0.01343   0.00003
 117        8PX        -0.00133   0.04347   0.00417   0.00161  -0.00212
 118        8PY        -0.07481   0.03921   0.00229   0.01501   0.00235
 119        8PZ        -0.04564  -0.06631  -0.00152  -0.00351  -0.00021
 120        9PX        -0.01963   0.67193   0.06730   0.02822  -0.03631
 121        9PY        -1.16216   0.61833   0.03788   0.24374   0.03943
 122        9PZ        -0.70713  -1.04239  -0.03137  -0.05550   0.00077
 123       10PX         0.01865  -0.69872  -0.07548  -0.03815   0.04931
 124       10PY         1.19696  -0.66631  -0.04948  -0.27697  -0.04121
 125       10PZ         0.72327   1.12112   0.04716   0.07044  -0.00527
 126       11PX         0.01259   0.12610  -0.00955   0.03702  -0.03325
 127       11PY        -0.55561   0.12610  -0.01010   0.08967  -0.01793
 128       11PZ        -0.33087  -0.28582   0.00825  -0.05563  -0.05762
                         101       102       103       104       105
                           V         V         V         V         V
     Eigenvalues --     4.75201   4.75462   4.76488   4.83557   4.86280
   1 1   Si 1S         -0.00009   0.00409  -0.01313   0.00385   0.00000
   2        2S         -0.00032   0.01504  -0.04936   0.01465   0.00001
   3        3S          0.00171  -0.08129   0.27651  -0.08378  -0.00005
   4        4S         -0.00171   0.08077  -0.32299   0.10499   0.00006
   5        5S         -0.00058   0.02793   0.18090  -0.10201  -0.00008
   6        6S         -0.00015   0.02052   0.35208  -0.13236   0.00003
   7        7PX        -0.00053   0.00286   0.00633  -0.00289   0.00015
   8        7PY        -0.00018   0.00071   0.01054  -0.00399   0.00005
   9        7PZ         0.00019   0.00511   0.01640  -0.00703  -0.00010
  10        8PX        -0.00089   0.00016  -0.00160   0.00092  -0.00032
  11        8PY        -0.00027  -0.00184  -0.00164   0.00160  -0.00011
  12        8PZ         0.00056  -0.00076  -0.00357   0.00242   0.00020
  13        9PX        -0.00612  -0.00027   0.00071  -0.00485  -0.01049
  14        9PY        -0.00202  -0.00687  -0.00326  -0.00136  -0.00369
  15        9PZ         0.00384  -0.00407  -0.00070  -0.00873   0.00640
  16       10PX         0.08046  -0.02045   0.04289  -0.00271   0.07906
  17       10PY         0.02511   0.14967   0.04624  -0.06314   0.02783
  18       10PZ        -0.04991   0.04849   0.09684  -0.04051  -0.04837
  19       11PX         0.12962  -0.05848   0.02314  -0.03950  -0.00960
  20       11PY         0.04647  -0.05421   0.02910   0.08843  -0.00291
  21       11PZ        -0.07593  -0.13373   0.05482  -0.01338   0.00564
  22 2   H  1S          0.00056  -0.02586   0.02274   0.00434   0.00004
  23        2S         -0.00247   0.11394  -0.09593  -0.01542  -0.00016
  24        3S          0.00120  -0.05889  -0.02086   0.10880   0.00045
  25        4PX        -0.02574  -0.01050   0.00722  -0.00078  -0.01221
  26        4PY        -0.00959   0.01895  -0.03728   0.01189  -0.00431
  27        4PZ         0.01602  -0.00479  -0.00978   0.00553   0.00749
  28 3   H  1S         -0.00215  -0.01039   0.01459  -0.00506   0.01028
  29        2S         -0.01032   0.01310  -0.06491   0.02997  -0.04407
  30        3S         -0.15026  -0.08228  -0.03542   0.00518  -0.02544
  31        4PX        -0.00675   0.02581   0.00038  -0.00578  -0.00301
  32        4PY         0.01196  -0.01483   0.01070  -0.00004   0.00304
  33        4PZ        -0.01794  -0.00693  -0.03209   0.01577  -0.01737
  34 4   H  1S          0.00258  -0.01028   0.01462  -0.00503  -0.01026
  35        2S          0.00980   0.01354  -0.06502   0.02985   0.04409
  36        3S          0.15325  -0.07533  -0.03554   0.00492   0.02511
  37        4PX         0.01832  -0.00640  -0.03142   0.01475   0.01462
  38        4PY        -0.00682  -0.02683  -0.00053   0.00724   0.00106
  39        4PZ         0.01038   0.01383  -0.01265   0.00310   0.01023
  40 5   O  1S          0.00009  -0.00430   0.00023   0.00060  -0.00000
  41        2S          0.00023  -0.01141   0.00007   0.00246  -0.00000
  42        2PX        -0.93206   0.63028   0.14408  -0.24680  -0.48184
  43        2PY        -0.30475  -0.88052   0.51544   0.03193  -0.16947
  44        2PZ         0.55005   0.57091   0.53133  -0.38690   0.29438
  45        3S         -0.00253   0.12531  -0.00755  -0.02797   0.00004
  46        3PX         1.07435  -0.73688  -0.16802   0.29853   0.58193
  47        3PY         0.35071   1.04005  -0.62364  -0.03832   0.20468
  48        3PZ        -0.63386  -0.66067  -0.63258   0.46816  -0.35553
  49        4S          0.00568  -0.28111   0.08059   0.03483  -0.00010
  50        4PX        -0.51847   0.41310   0.08771  -0.19277  -0.35011
  51        4PY        -0.16615  -0.63571   0.47681   0.02694  -0.12318
  52        4PZ         0.30490   0.33607   0.41718  -0.30091   0.21389
  53 6   P  1S          0.00013  -0.00631   0.01399   0.00498   0.00000
  54        2S          0.00051  -0.02387   0.05248   0.01880   0.00000
  55        3S         -0.00258   0.12166  -0.26418  -0.09594  -0.00002
  56        4S          0.00267  -0.12602   0.25743   0.09875   0.00001
  57        5S         -0.00112   0.05206  -0.02705  -0.03289   0.00004
  58        6S         -0.00753   0.36205  -0.64654  -0.25871  -0.00008
  59        7PX         0.00114   0.00692  -0.01060  -0.00646  -0.00021
  60        7PY         0.00090  -0.02252  -0.00337  -0.00182  -0.00008
  61        7PZ        -0.00076  -0.00169  -0.01930  -0.01162   0.00013
  62        8PX         0.00074   0.00037   0.00033  -0.00138  -0.00099
  63        8PY         0.00022   0.00179  -0.00299   0.00245  -0.00034
  64        8PZ        -0.00049   0.00160  -0.00117  -0.00085   0.00061
  65        9PX        -0.01188  -0.00698   0.00637   0.01175  -0.00332
  66        9PY        -0.00424   0.00164   0.02805  -0.01733  -0.00119
  67        9PZ         0.00755  -0.00992   0.02652   0.00927   0.00201
  68       10PX         0.03628   0.05443  -0.09046  -0.03107   0.04792
  69       10PY         0.01620  -0.15443  -0.04640   0.01169   0.01681
  70       10PZ        -0.02288  -0.00142  -0.17472  -0.04410  -0.02922
  71       11PX         0.08394  -0.04303  -0.07473   0.20768   0.33660
  72       11PY         0.03004  -0.04153   0.23413  -0.25572   0.11804
  73       11PZ        -0.04875  -0.09844   0.01226   0.19339  -0.20542
  74 7   O  1S         -0.00001   0.00058   0.00383   0.00220   0.00000
  75        2S         -0.00002   0.00130   0.00984   0.00543   0.00000
  76        2PX         0.47993  -0.18443  -0.17776  -0.67506  -0.91973
  77        2PY         0.16376   0.16979  -0.70225   0.60246  -0.32244
  78        2PZ        -0.28685  -0.22871  -0.69432  -0.75967   0.56108
  79        3S          0.00011  -0.00896  -0.11582  -0.05652  -0.00001
  80        3PX        -0.52943   0.20465   0.20685   0.77866   1.06734
  81        3PY        -0.18061  -0.18944   0.79642  -0.68422   0.37419
  82        3PZ         0.31643   0.25307   0.79603   0.88242  -0.65113
  83        4S          0.00017   0.00019   0.30610   0.10535   0.00001
  84        4PX         0.19338  -0.07804  -0.14087  -0.38930  -0.53379
  85        4PY         0.06541   0.09463  -0.43809   0.29419  -0.18716
  86        4PZ        -0.11587  -0.08331  -0.48237  -0.46876   0.32565
  87 8   Cl 1S         -0.00010  -0.00000  -0.00015  -0.00069  -0.00096
  88        2S         -0.00034  -0.00008  -0.00044  -0.00237  -0.00335
  89        3S          0.00103   0.00089   0.00106   0.00880   0.01275
  90        4S          0.00124  -0.00297   0.00304   0.00095  -0.00020
  91        5S         -0.01797   0.02113  -0.03073  -0.05671  -0.07116
  92        6S          0.06662  -0.08327   0.09104   0.18257   0.23072
  93        7PX         0.00195  -0.00302   0.00510   0.00443   0.00520
  94        7PY        -0.00197   0.00151   0.00212  -0.00175  -0.00018
  95        7PZ        -0.00149  -0.00127   0.00103   0.00129  -0.00041
  96        8PX        -0.00077   0.00102  -0.00223  -0.00185  -0.00238
  97        8PY         0.00063  -0.00020  -0.00107   0.00105   0.00015
  98        8PZ         0.00069   0.00085  -0.00031  -0.00027   0.00055
  99        9PX        -0.01342   0.01990  -0.03309  -0.03005  -0.03621
 100        9PY         0.01349  -0.01059  -0.01411   0.01190   0.00095
 101        9PZ         0.01017   0.00822  -0.00680  -0.00928   0.00280
 102       10PX         0.02994  -0.04249   0.06272   0.06459   0.08018
 103       10PY        -0.03322   0.02882   0.02977  -0.02551   0.00148
 104       10PZ        -0.02394  -0.01405   0.01361   0.02737  -0.00472
 105       11PX        -0.00532  -0.01174   0.03174   0.00029  -0.02581
 106       11PY         0.04459  -0.03854  -0.07741   0.08992  -0.03499
 107       11PZ         0.05321   0.02911  -0.00188  -0.07954   0.05474
 108 9   Cl 1S          0.00010   0.00000  -0.00015  -0.00069   0.00096
 109        2S          0.00034  -0.00008  -0.00044  -0.00237   0.00335
 110        3S         -0.00107   0.00088   0.00108   0.00880  -0.01275
 111        4S         -0.00112  -0.00303   0.00304   0.00095   0.00020
 112        5S          0.01709   0.02173  -0.03080  -0.05676   0.07116
 113        6S         -0.06314  -0.08571   0.09115   0.18277  -0.23069
 114        7PX         0.00099  -0.00069  -0.00186   0.00037   0.00200
 115        7PY         0.00289   0.00244  -0.00033  -0.00317   0.00271
 116        7PZ        -0.00017  -0.00267   0.00529   0.00376  -0.00399
 117        8PX        -0.00055   0.00042   0.00100  -0.00009  -0.00118
 118        8PY        -0.00107  -0.00045   0.00006   0.00167  -0.00140
 119        8PZ         0.00005   0.00120  -0.00228  -0.00135   0.00162
 120        9PX        -0.00673   0.00467   0.01220  -0.00300  -0.01403
 121        9PY        -0.01984  -0.01670   0.00182   0.02142  -0.01859
 122        9PZ         0.00124   0.01731  -0.03448  -0.02579   0.02787
 123       10PX         0.01453  -0.01002  -0.02395   0.01249   0.03154
 124       10PY         0.04704   0.04203  -0.00073  -0.04386   0.03775
 125       10PZ        -0.00146  -0.03339   0.06659   0.05918  -0.06347
 126       11PX        -0.02621   0.04466   0.02406  -0.10711  -0.06985
 127       11PY        -0.05427  -0.02074  -0.08009   0.05219   0.00149
 128       11PZ        -0.03491  -0.00761   0.00279  -0.01388   0.00365
                         106       107       108       109       110
                           V         V         V         V         V
     Eigenvalues --     4.89500   5.44686   6.55131   9.48677   9.51458
   1 1   Si 1S          0.00869   0.11013  -0.00048  -0.00000  -0.00090
   2        2S          0.03319   0.41339  -0.00170  -0.00000  -0.00318
   3        3S         -0.19133  -2.38640   0.00953   0.00003   0.02144
   4        4S          0.24492   2.85156  -0.00927  -0.00004  -0.03100
   5        5S         -0.23315  -2.09730   0.09938   0.00018   0.01931
   6        6S         -0.25694   1.74989  -0.33663  -0.00059   0.14287
   7        7PX        -0.00899  -0.00389   0.00056   0.01773   0.00421
   8        7PY        -0.00840  -0.00317  -0.00153   0.00621   0.01262
   9        7PZ        -0.01954  -0.00820   0.00005  -0.01084   0.01410
  10        8PX         0.00207  -0.00062   0.00030  -0.01625  -0.00398
  11        8PY         0.00416  -0.00014  -0.00057  -0.00570  -0.01090
  12        8PZ         0.00578  -0.00109   0.00016   0.00994  -0.01275
  13        9PX         0.01038   0.01590  -0.01152  -0.00685   0.00273
  14        9PY        -0.03122   0.01182   0.02953  -0.00239  -0.02063
  15        9PZ        -0.00097   0.03288  -0.00190   0.00419  -0.00740
  16       10PX        -0.11451   0.00821   0.03039   0.03386  -0.01224
  17       10PY         0.01093  -0.00113  -0.12120   0.01184   0.10993
  18       10PZ        -0.18107   0.01266  -0.02001  -0.02072   0.04323
  19       11PX         0.00304  -0.08707   0.05329  -0.07360   0.01200
  20       11PY         0.01767   0.09262  -0.28811  -0.02627  -0.13881
  21       11PZ         0.01509  -0.08868  -0.07906   0.04518  -0.06028
  22 2   H  1S         -0.02719  -0.03641  -0.01471  -0.00003  -0.01242
  23        2S          0.12423   0.20334   0.03513   0.00008   0.05829
  24        3S          0.03207  -0.27720  -0.19394  -0.00017  -0.13804
  25        4PX        -0.00826  -0.05311   0.00938  -0.00146  -0.00132
  26        4PY         0.04724   0.13988  -0.00594  -0.00052   0.00464
  27        4PZ         0.01386  -0.00597   0.01180   0.00089   0.00054
  28 3   H  1S         -0.00690  -0.04773  -0.02942   0.00822  -0.00481
  29        2S          0.03141   0.25075   0.10830  -0.05044   0.01506
  30        3S          0.04865  -0.45836  -0.00177   0.09399  -0.04915
  31        4PX         0.01200  -0.04973  -0.01834  -0.00300   0.00043
  32        4PY        -0.01145  -0.07806   0.00868   0.00282   0.00237
  33        4PZ         0.03315   0.11552   0.01655   0.00139  -0.00775
  34 4   H  1S         -0.00693  -0.04769  -0.02948  -0.00834  -0.00481
  35        2S          0.03155   0.25068   0.10833   0.05070   0.01507
  36        3S          0.04867  -0.45828  -0.00179  -0.09357  -0.04929
  37        4PX         0.02851   0.14768   0.01554  -0.00074  -0.00760
  38        4PY        -0.00567  -0.00827   0.02076  -0.00405  -0.00050
  39        4PZ         0.02309  -0.00537  -0.00415   0.00097  -0.00282
  40 5   O  1S          0.00239   0.00254  -0.00126   0.00000   0.00198
  41        2S          0.00510   0.00537  -0.00089   0.00000   0.00240
  42        2PX        -0.18474   0.01646   0.02723  -0.00767  -0.00342
  43        2PY        -0.66228   0.14909  -0.12600  -0.00269   0.00704
  44        2PZ        -0.68312   0.11264  -0.02785   0.00466  -0.00157
  45        3S         -0.06030  -0.08285  -0.01408  -0.00005  -0.03661
  46        3PX         0.22736  -0.00557  -0.03235   0.01904   0.00789
  47        3PY         0.82770  -0.19592   0.18012   0.00667  -0.01838
  48        3PZ         0.84798  -0.12175   0.05056  -0.01157   0.00240
  49        4S          0.15767   0.13214  -0.02928   0.00014   0.14587
  50        4PX        -0.15265  -0.07882  -0.01474  -0.04738  -0.03160
  51        4PY        -0.58550   0.13891  -0.10752  -0.01662   0.10270
  52        4PZ        -0.58641  -0.04915  -0.08588   0.02879   0.00721
  53 6   P  1S         -0.00125   0.00207   0.11523   0.00000  -0.00564
  54        2S         -0.00465   0.00792   0.44313   0.00000  -0.02122
  55        3S          0.02331  -0.04187  -2.46631  -0.00002   0.13194
  56        4S         -0.02113   0.04504   2.86197   0.00003  -0.18145
  57        5S         -0.01913   0.01913  -1.74142  -0.00003   0.33630
  58        6S          0.10993  -0.23244   1.42943  -0.00007  -0.95811
  59        7PX         0.00067  -0.00027  -0.00032  -0.01236  -0.00742
  60        7PY        -0.01739   0.00093   0.00091  -0.00435   0.00481
  61        7PZ        -0.00891   0.00010  -0.00001   0.00754  -0.00939
  62        8PX         0.00061   0.00112  -0.00286   0.00630   0.00411
  63        8PY         0.00215   0.00011   0.00020   0.00222  -0.00264
  64        8PZ         0.00223   0.00190  -0.00456  -0.00384   0.00522
  65        9PX        -0.00825  -0.00875   0.02251   0.02381   0.01464
  66        9PY        -0.01138  -0.01059  -0.01255   0.00837  -0.00788
  67        9PZ        -0.02005  -0.02047   0.02972  -0.01452   0.01947
  68       10PX         0.03141  -0.00732  -0.02882   0.02718  -0.01985
  69       10PY        -0.05032   0.09887   0.03601   0.00953  -0.00534
  70       10PZ         0.02245   0.04495  -0.02669  -0.01663  -0.03557
  71       11PX         0.05595   0.01248  -0.09274   0.28444   0.15655
  72       11PY         0.04571   0.13323  -0.16708   0.09978  -0.08155
  73       11PZ         0.11774   0.09662  -0.24745  -0.17367   0.20983
  74 7   O  1S          0.00089  -0.00083  -0.00087   0.00000   0.00187
  75        2S          0.00279  -0.00125  -0.00053   0.00000   0.00236
  76        2PX         0.08097   0.00316   0.04230  -0.01094  -0.00847
  77        2PY        -0.76525  -0.05122   0.06316  -0.00384   0.00211
  78        2PZ        -0.30731  -0.02425   0.10555   0.00668  -0.01267
  79        3S         -0.01876   0.01419  -0.01616  -0.00002  -0.03817
  80        3PX        -0.09118  -0.00414  -0.05875   0.02573   0.01990
  81        3PY         0.89930   0.07235  -0.08800   0.00903  -0.00372
  82        3PZ         0.36764   0.03478  -0.14673  -0.01571   0.03048
  83        4S         -0.03681  -0.04388  -0.01772   0.00007   0.15003
  84        4PX         0.03663   0.00783   0.02616  -0.05607  -0.06008
  85        4PY        -0.42873  -0.06270   0.04145  -0.01968  -0.02504
  86        4PZ        -0.18642  -0.02319   0.06658   0.03421  -0.11286
  87 8   Cl 1S          0.00011   0.00075   0.00410   0.08382   0.08366
  88        2S          0.00039   0.00280   0.01599   0.33996   0.33948
  89        3S         -0.00166  -0.01230  -0.07681  -1.87508  -1.87506
  90        4S          0.00094   0.00754   0.06558   2.19935   2.20643
  91        5S          0.00022   0.00945   0.04711  -1.26387  -1.31235
  92        6S          0.00984   0.01580  -0.27023   0.77049   0.91960
  93        7PX        -0.00001   0.00267   0.00702   0.00313   0.00185
  94        7PY        -0.00130   0.00115   0.00048  -0.00037  -0.00012
  95        7PZ        -0.00057   0.00092   0.00080  -0.00014  -0.00065
  96        8PX         0.00017  -0.00156  -0.00675   0.00401  -0.00405
  97        8PY         0.00097  -0.00146  -0.00060  -0.00073  -0.00004
  98        8PZ         0.00059  -0.00094  -0.00141   0.00046  -0.00138
  99        9PX        -0.00019  -0.02035  -0.05565   0.00432  -0.02793
 100        9PY         0.00844  -0.00881  -0.00518  -0.00143   0.00012
 101        9PZ         0.00334  -0.00703  -0.00896   0.00255  -0.00295
 102       10PX         0.00297   0.04666   0.04773  -0.02866   0.05508
 103       10PY        -0.01178   0.01107   0.01308   0.00512   0.00152
 104       10PZ         0.00063   0.01154   0.01566  -0.00579   0.00917
 105       11PX        -0.00809  -0.03285  -0.13504   0.14761   0.19127
 106       11PY        -0.00219  -0.02385  -0.01633  -0.02780  -0.00563
 107       11PZ        -0.04088  -0.02309   0.01285   0.03919  -0.05290
 108 9   Cl 1S          0.00011   0.00075   0.00410  -0.08376   0.08372
 109        2S          0.00040   0.00280   0.01601  -0.33974   0.33971
 110        3S         -0.00168  -0.01228  -0.07688   1.87384  -1.87630
 111        4S          0.00094   0.00753   0.06563  -2.19789   2.20788
 112        5S          0.00029   0.00938   0.04715   1.26301  -1.31320
 113        6S          0.00968   0.01588  -0.27022  -0.76995   0.92015
 114        7PX         0.00015  -0.00068  -0.00194   0.00099  -0.00109
 115        7PY        -0.00124  -0.00003  -0.00267   0.00182  -0.00116
 116        7PZ        -0.00067   0.00298   0.00626  -0.00237   0.00116
 117        8PX        -0.00003   0.00044   0.00141   0.00063   0.00025
 118        8PY         0.00090  -0.00075   0.00227   0.00237   0.00148
 119        8PZ         0.00072  -0.00217  -0.00638  -0.00330  -0.00401
 120        9PX        -0.00116   0.00518   0.01389  -0.00129   0.00694
 121        9PY         0.00807   0.00023   0.01929   0.00250   0.01239
 122        9PZ         0.00395  -0.02273  -0.05134  -0.00439  -0.02423
 123       10PX         0.00503  -0.01137  -0.00950  -0.00252  -0.01177
 124       10PY        -0.01100  -0.00943  -0.00714  -0.01608  -0.02199
 125       10PZ        -0.00066   0.04718   0.05043   0.02482   0.04994
 126       11PX        -0.02960   0.00316   0.06378   0.00462  -0.10496
 127       11PY        -0.00975  -0.01124   0.05372   0.08123  -0.10966
 128       11PZ        -0.02774  -0.04550  -0.10827  -0.13206   0.12811
                         111       112       113       114       115
                           V         V         V         V         V
     Eigenvalues --    11.20500  11.24695  11.27195  13.62180  13.63718
   1 1   Si 1S         -0.00124   0.00000  -0.00020  -0.00018  -0.00000
   2        2S         -0.00469   0.00000  -0.00081  -0.00057  -0.00000
   3        3S          0.03483  -0.00001   0.00587   0.00431   0.00000
   4        4S         -0.05967   0.00001  -0.00912  -0.00698   0.00000
   5        5S          0.04641  -0.00005  -0.02151   0.00112  -0.00002
   6        6S          0.14349   0.00016   0.16524   0.00108   0.00005
   7        7PX        -0.55214  -0.97415   0.40756  -0.00368   0.00371
   8        7PY        -0.22169  -0.34225  -1.12001   0.00357   0.00128
   9        7PZ        -1.03150   0.59500   0.02303  -0.00398  -0.00228
  10        8PX         0.63765   1.12997  -0.47399   0.00519  -0.00516
  11        8PY         0.25619   0.39699   1.30286  -0.00484  -0.00178
  12        8PZ         1.19133  -0.69018  -0.02661   0.00573   0.00317
  13        9PX        -0.47082  -0.84366   0.35823  -0.00919   0.00592
  14        9PY        -0.19991  -0.29640  -0.99685   0.00587   0.00202
  15        9PZ        -0.88582   0.51530   0.01312  -0.01167  -0.00364
  16       10PX         0.30457   0.51346  -0.22256   0.02224  -0.00285
  17       10PY         0.17821   0.18039   0.66975  -0.01371  -0.00091
  18       10PZ         0.60112  -0.31359   0.02090   0.02854   0.00173
  19       11PX        -0.11191  -0.18622   0.09134  -0.03829   0.03382
  20       11PY        -0.05005  -0.06528  -0.28037   0.06263   0.01167
  21       11PZ        -0.21188   0.11368  -0.01183  -0.02648  -0.02062
  22 2   H  1S          0.00628   0.00002  -0.01151   0.00442  -0.00001
  23        2S         -0.01216  -0.00014   0.08372  -0.02265   0.00006
  24        3S         -0.01993   0.00025  -0.16575   0.06380  -0.00022
  25        4PX        -0.00202  -0.00329   0.03369  -0.00037  -0.00340
  26        4PY        -0.01198  -0.00097  -0.09983  -0.00092  -0.00121
  27        4PZ        -0.01022   0.00197  -0.00260  -0.00114   0.00209
  28 3   H  1S          0.00592   0.00342   0.00328  -0.00042  -0.00196
  29        2S         -0.00372  -0.03757  -0.02549   0.00444   0.00449
  30        3S         -0.05454   0.05320  -0.00109  -0.02153  -0.01316
  31        4PX         0.01503  -0.03091  -0.00834  -0.00098  -0.00025
  32        4PY         0.02068  -0.04036  -0.02129  -0.00004   0.00584
  33        4PZ        -0.05647   0.06870   0.02178  -0.00191   0.00164
  34 4   H  1S          0.00592  -0.00343   0.00327  -0.00040   0.00197
  35        2S         -0.00374   0.03769  -0.02532   0.00438  -0.00450
  36        3S         -0.05456  -0.05353  -0.00134  -0.02154   0.01321
  37        4PX        -0.06074  -0.08563   0.03030  -0.00122   0.00131
  38        4PY        -0.00616  -0.00076  -0.00754  -0.00013  -0.00547
  39        4PZ        -0.01000   0.00252  -0.00206  -0.00178  -0.00230
  40 5   O  1S          0.00110   0.00000   0.00112  -0.00171   0.00000
  41        2S          0.00147   0.00000   0.00124  -0.00148   0.00000
  42        2PX         0.01222   0.00005   0.00200  -0.00990  -0.00199
  43        2PY         0.01649   0.00002   0.00623   0.02650  -0.00070
  44        2PZ         0.02947  -0.00002   0.00686  -0.00096   0.00121
  45        3S         -0.02956  -0.00003  -0.02122   0.02564   0.00000
  46        3PX        -0.01449  -0.00169   0.00143   0.00975   0.00499
  47        3PY        -0.01922  -0.00061  -0.00990  -0.02416   0.00177
  48        3PZ        -0.03474   0.00103  -0.00335   0.00208  -0.00304
  49        4S         -0.04124   0.00004   0.01833   0.04663  -0.00003
  50        4PX         0.01244  -0.01732   0.00256  -0.01910  -0.03655
  51        4PY         0.05296  -0.00603   0.01690   0.08580  -0.01287
  52        4PZ         0.05076   0.01059   0.01388   0.01808   0.02227
  53 6   P  1S          0.00008  -0.00000  -0.00021   0.00036   0.00000
  54        2S          0.00024  -0.00000  -0.00088   0.00119   0.00000
  55        3S         -0.00121   0.00001   0.00650  -0.00859  -0.00001
  56        4S          0.00011  -0.00002  -0.01281   0.01471   0.00001
  57        5S          0.02847   0.00007   0.05838  -0.01813  -0.00003
  58        6S         -0.07074  -0.00020  -0.07154  -0.02520   0.00013
  59        7PX         0.00100  -0.00382   0.00837   0.64222  -0.99350
  60        7PY         0.01283  -0.00133   0.01402  -0.86977  -0.34881
  61        7PZ         0.00900   0.00236   0.02177   0.55277   0.60541
  62        8PX        -0.00081   0.00356  -0.00759  -0.78166   1.21092
  63        8PY        -0.01142   0.00124  -0.01246   1.05859   0.42515
  64        8PZ        -0.00788  -0.00219  -0.01959  -0.67280  -0.73790
  65        9PX        -0.00170   0.00039  -0.00569   0.58484  -0.91235
  66        9PY        -0.01088   0.00013  -0.01255  -0.79216  -0.32033
  67        9PZ        -0.00904  -0.00025  -0.01653   0.50333   0.55596
  68       10PX         0.00085   0.00459   0.01652  -0.36300   0.55929
  69       10PY         0.04160   0.00166   0.03784   0.49773   0.19636
  70       10PZ         0.02532  -0.00277   0.04883  -0.30889  -0.34078
  71       11PX         0.03739   0.03358   0.01744   0.08586  -0.11419
  72       11PY        -0.01916   0.01182   0.04485  -0.12607  -0.04012
  73       11PZ         0.05022  -0.02044   0.05439   0.06817   0.06952
  74 7   O  1S         -0.00064  -0.00000  -0.00087  -0.00015   0.00000
  75        2S         -0.00064  -0.00000  -0.00089  -0.00015   0.00000
  76        2PX        -0.00136  -0.00083  -0.00042  -0.00375   0.00061
  77        2PY         0.00044  -0.00029  -0.00428  -0.00027   0.00022
  78        2PZ        -0.00198   0.00050  -0.00315  -0.00629  -0.00034
  79        3S          0.00977   0.00000   0.01477   0.00203  -0.00003
  80        3PX         0.00302   0.00216   0.00062   0.00564  -0.00127
  81        3PY        -0.00120   0.00076   0.00938  -0.00394  -0.00045
  82        3PZ         0.00426  -0.00130   0.00641   0.00696   0.00074
  83        4S         -0.02594  -0.00001  -0.04589   0.02584  -0.00005
  84        4PX        -0.00186  -0.00538   0.00550   0.00256  -0.02670
  85        4PY         0.00609  -0.00189  -0.00580  -0.02961  -0.00933
  86        4PZ         0.00047   0.00327   0.00567  -0.01278   0.01640
  87 8   Cl 1S          0.00119   0.00155   0.00076   0.00084  -0.00112
  88        2S          0.00488   0.00632   0.00312   0.00347  -0.00463
  89        3S         -0.02874  -0.03707  -0.01858  -0.02223   0.02969
  90        4S          0.03813   0.04835   0.02549   0.03334  -0.04449
  91        5S         -0.04207  -0.04282  -0.03727  -0.02837   0.03169
  92        6S          0.06907   0.03857   0.08232  -0.00553   0.03277
  93        7PX        -0.00084   0.00010  -0.00177  -0.01036   0.01436
  94        7PY         0.00067   0.00080  -0.00011   0.00421   0.00075
  95        7PZ         0.00043   0.00028   0.00009  -0.00151  -0.00373
  96        8PX        -0.00205   0.00047  -0.00432  -0.01336   0.01825
  97        8PY         0.00156   0.00126   0.00035   0.00611   0.00118
  98        8PZ         0.00094   0.00033   0.00046  -0.00227  -0.00533
  99        9PX        -0.00580   0.00244  -0.01273  -0.00145  -0.00118
 100        9PY         0.00413   0.00100   0.00334   0.00936   0.00245
 101        9PZ         0.00219  -0.00044   0.00206  -0.00391  -0.00762
 102       10PX         0.01562  -0.00906   0.03624  -0.01922   0.04023
 103       10PY        -0.01072  -0.00107  -0.00985  -0.02844  -0.00670
 104       10PZ        -0.00518   0.00251  -0.00417   0.01032   0.02377
 105       11PX         0.01089   0.02586  -0.00697  -0.02999   0.05017
 106       11PY         0.00719   0.00508  -0.01353   0.02142  -0.00201
 107       11PZ        -0.00499  -0.00174  -0.02683   0.00533  -0.01610
 108 9   Cl 1S          0.00119  -0.00155   0.00076   0.00084   0.00112
 109        2S          0.00489  -0.00630   0.00313   0.00348   0.00463
 110        3S         -0.02881   0.03697  -0.01865  -0.02227  -0.02966
 111        4S          0.03822  -0.04823   0.02557   0.03340   0.04445
 112        5S         -0.04215   0.04270  -0.03734  -0.02843  -0.03166
 113        6S          0.06916  -0.03841   0.08236  -0.00555  -0.03275
 114        7PX         0.00032   0.00018   0.00072   0.00029   0.00823
 115        7PY         0.00108  -0.00070   0.00076   0.00795   0.00718
 116        7PZ        -0.00028  -0.00045  -0.00143  -0.00802  -0.01005
 117        8PX         0.00073   0.00049   0.00166  -0.00021   0.01105
 118        8PY         0.00254  -0.00092   0.00245   0.01073   0.00910
 119        8PZ        -0.00076  -0.00092  -0.00320  -0.01031  -0.01254
 120        9PX         0.00180   0.00166   0.00439  -0.00709   0.00698
 121        9PY         0.00681   0.00044   0.00936   0.00737  -0.00041
 122        9PZ        -0.00245  -0.00207  -0.00840  -0.00046   0.00410
 123       10PX        -0.00445  -0.00563  -0.01095   0.02824  -0.00904
 124       10PY        -0.01780  -0.00409  -0.02641  -0.01174   0.01764
 125       10PZ         0.00707   0.00650   0.02467  -0.01869  -0.04284
 126       11PX        -0.01113   0.01252  -0.01326   0.00441   0.02908
 127       11PY        -0.00056   0.00834  -0.01574   0.03349   0.02982
 128       11PZ         0.00845  -0.02169  -0.02299  -0.01573  -0.03228
                         116       117       118       119       120
                           V         V         V         V         V
     Eigenvalues --    13.66247  25.35244  25.40425  25.44088  25.50550
   1 1   Si 1S          0.00018  -0.00000  -0.00010   0.00000   0.00000
   2        2S          0.00063  -0.00000  -0.00020   0.00000  -0.00000
   3        3S         -0.00552   0.00001   0.00207  -0.00000   0.00000
   4        4S          0.01261  -0.00002  -0.00432  -0.00000  -0.00001
   5        5S         -0.07664   0.00010   0.00944   0.00004   0.00012
   6        6S          0.13459  -0.00032  -0.01046  -0.00005   0.00017
   7        7PX         0.00234  -0.00095   0.00002   0.00123   0.00053
   8        7PY        -0.03009  -0.00033   0.00057   0.00043   0.00020
   9        7PZ        -0.01341   0.00058   0.00036  -0.00076  -0.00031
  10        8PX        -0.00331   0.00197  -0.00003  -0.00227  -0.00111
  11        8PY         0.04335   0.00068  -0.00115  -0.00080  -0.00041
  12        8PZ         0.01943  -0.00121  -0.00071   0.00140   0.00065
  13        9PX         0.00846  -0.00566   0.00004   0.00507   0.00184
  14        9PY        -0.08158  -0.00195   0.00216   0.00180   0.00071
  15        9PZ        -0.03296   0.00346   0.00131  -0.00314  -0.00106
  16       10PX        -0.03064   0.01039   0.00230  -0.02310   0.00206
  17       10PY         0.11743   0.00354  -0.00179  -0.00820   0.00070
  18       10PZ         0.01727  -0.00633   0.00266   0.01423  -0.00136
  19       11PX        -0.01481  -0.01569  -0.02451   0.01270  -0.01930
  20       11PY        -0.00637  -0.00548   0.03292   0.00392  -0.00750
  21       11PZ        -0.02745   0.00962  -0.02062  -0.00762   0.01211
  22 2   H  1S         -0.00577   0.00001   0.00252  -0.00001  -0.00002
  23        2S          0.03645  -0.00004  -0.01092   0.00008   0.00009
  24        3S         -0.01410   0.00013   0.04446  -0.00048  -0.00059
  25        4PX        -0.00220   0.00090   0.00028  -0.00034  -0.00111
  26        4PY         0.00534   0.00032   0.00137  -0.00014  -0.00041
  27        4PZ        -0.00049  -0.00056   0.00124   0.00020   0.00068
  28 3   H  1S          0.00980  -0.00332   0.00214  -0.01054   0.00632
  29        2S         -0.03169   0.00830  -0.00420   0.02581  -0.02758
  30        3S         -0.05771   0.00122  -0.02016   0.03517   0.06275
  31        4PX         0.01021  -0.00227   0.00024   0.00102  -0.00200
  32        4PY        -0.01209   0.00135  -0.00206   0.01660   0.00440
  33        4PZ        -0.01436   0.00091  -0.00348   0.01107   0.00065
  34 4   H  1S          0.00978   0.00329   0.00209   0.01051  -0.00633
  35        2S         -0.03146  -0.00817  -0.00399  -0.02562   0.02764
  36        3S         -0.05794  -0.00111  -0.02060  -0.03498  -0.06274
  37        4PX        -0.00944  -0.00085  -0.00195  -0.00090   0.00088
  38        4PY        -0.01903  -0.00241  -0.00285  -0.01654  -0.00481
  39        4PZ        -0.00231   0.00102  -0.00213  -0.01110  -0.00001
  40 5   O  1S         -0.00146   0.00000  -0.00183   0.00000   0.00000
  41        2S         -0.00123  -0.00000   0.00020  -0.00000  -0.00000
  42        2PX        -0.00565   0.00332   0.00263   0.00489  -0.00357
  43        2PY         0.01220   0.00117  -0.00267   0.00173  -0.00125
  44        2PZ        -0.00223  -0.00203   0.00277  -0.00299   0.00219
  45        3S          0.02245  -0.00001   0.01523  -0.00001   0.00001
  46        3PX         0.00511  -0.00997  -0.00854  -0.01624   0.01320
  47        3PY        -0.00179  -0.00350   0.01014  -0.00573   0.00461
  48        3PZ         0.00733   0.00610  -0.00816   0.00994  -0.00810
  49        4S         -0.00662   0.00003  -0.03933  -0.00001   0.00001
  50        4PX        -0.02524   0.02259   0.02767   0.04192  -0.03754
  51        4PY         0.02220   0.00790  -0.04839   0.01475  -0.01331
  52        4PZ        -0.02862  -0.01382   0.01751  -0.02564   0.02304
  53 6   P  1S         -0.00021   0.00000  -0.00048   0.00000   0.00000
  54        2S         -0.00048   0.00000  -0.00118   0.00000   0.00001
  55        3S          0.00409  -0.00001   0.01054  -0.00002  -0.00006
  56        4S         -0.00911   0.00002  -0.01963   0.00004   0.00010
  57        5S          0.02508  -0.00004   0.00159  -0.00012  -0.00020
  58        6S          0.00152   0.00006   0.08607   0.00029   0.00032
  59        7PX        -0.27478  -0.01684  -0.00675  -0.00739   0.01319
  60        7PY        -0.77251  -0.00590   0.00367  -0.00259   0.00468
  61        7PZ        -0.89602   0.01029  -0.00898   0.00451  -0.00802
  62        8PX         0.33560   0.03218   0.01334   0.01398  -0.02428
  63        8PY         0.94354   0.01128  -0.00729   0.00490  -0.00863
  64        8PZ         1.09437  -0.01966   0.01772  -0.00853   0.01477
  65        9PX        -0.25602  -0.04841  -0.03198  -0.01816   0.00986
  66        9PY        -0.71938  -0.01695   0.01781  -0.00635   0.00374
  67        9PZ        -0.83462   0.02958  -0.04222   0.01107  -0.00587
  68       10PX         0.16937   0.01132   0.05476  -0.00148   0.08747
  69       10PY         0.47348   0.00390  -0.03171  -0.00055   0.03018
  70       10PZ         0.55073  -0.00693   0.07147   0.00095  -0.05368
  71       11PX        -0.02790  -0.08872  -0.06740  -0.04760  -0.03823
  72       11PY        -0.14188  -0.03111   0.03442  -0.01673  -0.01271
  73       11PZ        -0.12770   0.05414  -0.09083   0.02887   0.02344
  74 7   O  1S          0.00239   0.00000  -0.00161   0.00000   0.00000
  75        2S          0.00198  -0.00000   0.00017  -0.00000  -0.00000
  76        2PX         0.01126   0.00355   0.00180   0.00024  -0.00490
  77        2PY         0.01624   0.00125  -0.00125   0.00008  -0.00172
  78        2PZ         0.02780  -0.00216   0.00225  -0.00014   0.00299
  79        3S         -0.03196  -0.00000   0.01377   0.00000  -0.00003
  80        3PX        -0.01077  -0.01099  -0.00607  -0.00018   0.01748
  81        3PY        -0.01616  -0.00386   0.00230  -0.00006   0.00615
  82        3PZ        -0.02696   0.00671  -0.00864   0.00009  -0.01066
  83        4S         -0.05983   0.00001  -0.03598  -0.00000   0.00005
  84        4PX         0.04017   0.02624   0.02336  -0.00114  -0.04826
  85        4PY         0.04960   0.00922   0.01088  -0.00039  -0.01700
  86        4PZ         0.09430  -0.01604   0.04456   0.00076   0.02927
  87 8   Cl 1S         -0.00036   0.00013  -0.00026   0.00014  -0.00040
  88        2S         -0.00150   0.00030  -0.00086   0.00037  -0.00111
  89        3S          0.00958  -0.00194   0.00659  -0.00251   0.00791
  90        4S         -0.01427   0.00235  -0.01145   0.00338  -0.01168
  91        5S          0.01029  -0.00067   0.02000  -0.00066   0.00855
  92        6S          0.01124  -0.02212  -0.04748  -0.01591  -0.00630
  93        7PX         0.00355  -0.84259  -0.21024  -0.39309   1.24943
  94        7PY         0.00346  -0.83198   0.77111   1.30210  -0.15153
  95        7PZ         0.00471   0.99980  -1.33152   0.75276   0.92307
  96        8PX         0.00438  -0.67416  -0.16814  -0.31398   0.99686
  97        8PY         0.00514  -0.66591   0.61666   1.04058  -0.12097
  98        8PZ         0.00680   0.80019  -1.06481   0.60153   0.73689
  99        9PX        -0.00175   0.89582   0.22332   0.42055  -1.34266
 100        9PY         0.00872   0.88410  -0.82131  -1.39058   0.16212
 101        9PZ         0.01028  -1.06280   1.41826  -0.80440  -0.98919
 102       10PX         0.01681  -0.42589  -0.10496  -0.20422   0.66218
 103       10PY        -0.02684  -0.42254   0.39149   0.67260  -0.07705
 104       10PZ        -0.03099   0.50978  -0.67670   0.39211   0.48307
 105       11PX         0.00741   0.13260   0.02515   0.05858  -0.18846
 106       11PY         0.02158   0.14923  -0.11133  -0.21111   0.01495
 107       11PZ         0.01540  -0.18963   0.20293  -0.14270  -0.15381
 108 9   Cl 1S         -0.00036  -0.00013  -0.00026  -0.00014   0.00040
 109        2S         -0.00150  -0.00030  -0.00086  -0.00037   0.00112
 110        3S          0.00958   0.00195   0.00659   0.00250  -0.00794
 111        4S         -0.01427  -0.00236  -0.01145  -0.00336   0.01172
 112        5S          0.01027   0.00068   0.02001   0.00063  -0.00861
 113        6S          0.01131   0.02208  -0.04754   0.01589   0.00627
 114        7PX         0.00100  -1.49158  -1.37669  -0.13740  -0.40392
 115        7PY         0.00256   0.01390   0.36305  -1.48800   0.45839
 116        7PZ         0.00625   0.42506  -0.61834  -0.43125  -1.43308
 117        8PX         0.00164  -1.19373  -1.10093  -0.10972  -0.32264
 118        8PY         0.00416   0.01125   0.29033  -1.18906   0.36568
 119        8PZ         0.00847   0.34004  -0.49449  -0.34475  -1.14358
 120        9PX         0.00486   1.58547   1.46657   0.14738   0.43147
 121        9PY         0.01104  -0.01446  -0.38638   1.58960  -0.49277
 122        9PZ         0.00621  -0.45187   0.65813   0.46018   1.53886
 123       10PX        -0.01829  -0.75847  -0.70010  -0.07403  -0.20753
 124       10PY        -0.03916   0.00744   0.18330  -0.77010   0.24197
 125       10PZ        -0.00942   0.21320  -0.31282  -0.22346  -0.75742
 126       11PX        -0.00020   0.26966   0.20917   0.03740   0.06918
 127       11PY         0.01881  -0.00820  -0.04694   0.24472  -0.05882
 128       11PZ         0.01994  -0.05593   0.09036   0.08444   0.22548
                         121       122       123       124       125
                           V         V         V         V         V
     Eigenvalues --    25.51706  25.78669  49.68120  49.76283 140.88257
   1 1   Si 1S         -0.00038  -0.00044   0.00051  -0.00005  -1.55016
   2        2S         -0.00068  -0.00087   0.00027  -0.00000   1.86084
   3        3S          0.00609   0.00893  -0.00622   0.00015  -1.26395
   4        4S         -0.00881  -0.01872   0.01503   0.00028   0.83175
   5        5S          0.01280   0.09525  -0.01731   0.01021  -0.43753
   6        6S         -0.16527  -0.27889  -0.04390  -0.05592   0.35462
   7        7PX        -0.00103  -0.00093  -0.00027  -0.00007   0.00057
   8        7PY        -0.00203   0.00752  -0.00133   0.00031   0.00038
   9        7PZ        -0.00286   0.00278  -0.00121   0.00006   0.00116
  10        8PX         0.00204   0.00199   0.00078   0.00021  -0.00154
  11        8PY         0.00443  -0.01562   0.00335  -0.00072  -0.00105
  12        8PZ         0.00589  -0.00570   0.00320  -0.00007  -0.00313
  13        9PX        -0.00390  -0.00905  -0.00175  -0.00073   0.00336
  14        9PY        -0.01605   0.05070  -0.00831   0.00419   0.00175
  15        9PZ        -0.01565   0.01428  -0.00764   0.00122   0.00652
  16       10PX         0.00400   0.02685  -0.00960   0.00026  -0.00128
  17       10PY         0.01192  -0.10979  -0.00644  -0.01818  -0.00163
  18       10PZ         0.01342  -0.01917  -0.01940  -0.01003  -0.00307
  19       11PX        -0.02349   0.00939  -0.00454   0.00356  -0.01954
  20       11PY         0.06275  -0.01475   0.00672  -0.00841   0.02056
  21       11PZ        -0.00207   0.00647  -0.00349   0.00097  -0.02004
  22 2   H  1S         -0.00156   0.00141  -0.00258  -0.00079  -0.00555
  23        2S          0.00640  -0.02025   0.00829  -0.00014   0.03909
  24        3S          0.08381   0.02463   0.01830   0.00216  -0.05545
  25        4PX        -0.00186   0.00280   0.00066   0.00079  -0.00907
  26        4PY         0.00471  -0.00500   0.00550   0.00038   0.02491
  27        4PZ        -0.00029   0.00167   0.00425   0.00150  -0.00042
  28 3   H  1S         -0.00275  -0.00005  -0.00416  -0.00153  -0.00689
  29        2S          0.00072   0.00873   0.01410   0.00599   0.04595
  30        3S          0.06524   0.06710   0.00348   0.00687  -0.09358
  31        4PX         0.00315  -0.00475   0.00051  -0.00082  -0.00802
  32        4PY         0.00904   0.00114   0.00100   0.00077  -0.01335
  33        4PZ         0.00543   0.00511   0.00705   0.00223   0.02079
  34 4   H  1S         -0.00282  -0.00006  -0.00416  -0.00153  -0.00689
  35        2S          0.00096   0.00866   0.01411   0.00598   0.04594
  36        3S          0.06470   0.06740   0.00341   0.00688  -0.09356
  37        4PX        -0.00084   0.00523   0.00510   0.00173   0.02594
  38        4PY         0.00760   0.00473   0.00262   0.00168  -0.00134
  39        4PZ         0.00784  -0.00098   0.00422   0.00067  -0.00001
  40 5   O  1S          0.00068  -0.00717  -2.14509  -0.66647  -0.00127
  41        2S         -0.00008   0.00097   2.22853   0.69378   0.00241
  42        2PX        -0.00194   0.00211  -0.00292  -0.00068  -0.00012
  43        2PY        -0.00231  -0.00560   0.00238   0.00185   0.00280
  44        2PZ        -0.00449   0.00025  -0.00342  -0.00005   0.00142
  45        3S         -0.00781   0.04952  -0.25983  -0.09251  -0.01345
  46        3PX         0.00713  -0.00932   0.01052   0.00264   0.00281
  47        3PY         0.00568   0.02181  -0.00868  -0.00761  -0.00587
  48        3PZ         0.01484  -0.00276   0.01224  -0.00005   0.00122
  49        4S          0.01431  -0.11923   0.26613   0.11894   0.01954
  50        4PX        -0.03051   0.03463  -0.03046  -0.01183  -0.01748
  51        4PY         0.02521  -0.10071   0.02808   0.03451   0.00536
  52        4PZ        -0.03513  -0.00112  -0.03373   0.00048  -0.02553
  53 6   P  1S         -0.00039  -0.00182  -0.00006  -0.00000   0.00024
  54        2S         -0.00093  -0.00452  -0.00002   0.00006  -0.00026
  55        3S          0.00812   0.04103   0.00014  -0.00111  -0.00005
  56        4S         -0.01491  -0.07591   0.00078   0.00437   0.00023
  57        5S          0.03050  -0.06400   0.01611   0.02117   0.00715
  58        6S         -0.04626   0.38559  -0.09938  -0.17516  -0.03284
  59        7PX         0.00058  -0.01083  -0.00036  -0.00076  -0.00022
  60        7PY        -0.01219   0.00938   0.00240  -0.00068  -0.00011
  61        7PZ        -0.00617  -0.01233   0.00078  -0.00163  -0.00042
  62        8PX        -0.00113   0.02032   0.00097   0.00200   0.00062
  63        8PY         0.02443  -0.01771  -0.00611   0.00172   0.00040
  64        8PZ         0.01241   0.02308  -0.00193   0.00426   0.00125
  65        9PX         0.00254  -0.02027  -0.00219  -0.00429  -0.00210
  66        9PY        -0.06664   0.02103   0.01366  -0.00512  -0.00394
  67        9PZ        -0.03423  -0.02106   0.00427  -0.00996  -0.00570
  68       10PX        -0.00364  -0.00610  -0.00737  -0.01503   0.00134
  69       10PY         0.13078   0.00353   0.02091   0.00915   0.01975
  70       10PZ         0.06843  -0.00805  -0.00005  -0.01937   0.01357
  71       11PX         0.02816  -0.04947  -0.00325  -0.02487   0.00633
  72       11PY        -0.18576  -0.05546   0.06219  -0.04372   0.02026
  73       11PZ        -0.06032  -0.11275   0.03046  -0.06585   0.02192
  74 7   O  1S          0.00003  -0.00595   0.66616  -2.14503   0.00047
  75        2S         -0.00000   0.00077  -0.69056   2.22810  -0.00098
  76        2PX         0.00003   0.00386   0.00091  -0.00171   0.00001
  77        2PY         0.00127   0.00070  -0.00135  -0.00247  -0.00140
  78        2PZ         0.00083   0.00672   0.00072  -0.00422  -0.00079
  79        3S          0.00349   0.04255   0.06847  -0.25721   0.00434
  80        3PX        -0.00169  -0.01425  -0.00295   0.00618  -0.00009
  81        3PY        -0.00351  -0.00384   0.00452   0.00936   0.00426
  82        3PZ        -0.00494  -0.02553  -0.00224   0.01550   0.00230
  83        4S         -0.00441  -0.10404  -0.04926   0.26676  -0.01518
  84        4PX         0.01843   0.04783   0.00541  -0.01959   0.00200
  85        4PY         0.02143   0.02645  -0.01512  -0.03201  -0.00585
  86        4PZ         0.04294   0.09352   0.00017  -0.05050  -0.00007
  87 8   Cl 1S         -0.00010  -0.00073   0.00012   0.00021  -0.00042
  88        2S         -0.00030  -0.00264   0.00020   0.00035   0.00028
  89        3S          0.00216   0.02137  -0.00218  -0.00376   0.00121
  90        4S         -0.00335  -0.04066   0.00437   0.00745  -0.00269
  91        5S          0.00281   0.09830  -0.01160  -0.01876   0.00399
  92        6S          0.00886  -0.19862   0.02584   0.03724   0.00167
  93        7PX        -0.01172  -1.56027   0.00617   0.00957   0.00177
  94        7PY        -1.35086  -0.09285  -0.00115  -0.00089   0.00091
  95        7PZ        -0.77634   0.19349   0.00017   0.00092   0.00071
  96        8PX        -0.00939  -1.23891   0.00404   0.00627   0.00102
  97        8PY        -1.07809  -0.07383  -0.00075  -0.00058   0.00056
  98        8PZ        -0.61959   0.15375   0.00011   0.00061   0.00043
  99        9PX         0.01226   1.70330  -0.01103  -0.01707  -0.00423
 100        9PY         1.44952   0.10035   0.00193   0.00158  -0.00152
 101        9PZ         0.83282  -0.20987  -0.00039  -0.00152  -0.00135
 102       10PX        -0.00459  -0.88010   0.01355   0.02060   0.00812
 103       10PY        -0.71368  -0.04821  -0.00090  -0.00223   0.00101
 104       10PZ        -0.40904   0.10176   0.00119   0.00055   0.00171
 105       11PX         0.00797   0.18982   0.00721   0.01369  -0.00740
 106       11PY         0.26743   0.01376  -0.01725   0.00957  -0.00229
 107       11PZ         0.14426   0.00923  -0.00854   0.01675  -0.00506
 108 9   Cl 1S         -0.00010  -0.00073   0.00012   0.00021  -0.00042
 109        2S         -0.00029  -0.00264   0.00020   0.00035   0.00028
 110        3S          0.00211   0.02137  -0.00218  -0.00375   0.00121
 111        4S         -0.00327  -0.04068   0.00436   0.00744  -0.00269
 112        5S          0.00277   0.09833  -0.01159  -0.01875   0.00397
 113        6S          0.00889  -0.19864   0.02582   0.03723   0.00169
 114        7PX         0.00028   0.72657  -0.00141  -0.00206  -0.00044
 115        7PY        -1.34093   0.71048  -0.00381  -0.00497   0.00012
 116        7PZ        -0.79645  -1.20339   0.00479   0.00801   0.00207
 117        8PX         0.00022   0.57706  -0.00093  -0.00135  -0.00025
 118        8PY        -1.07016   0.56409  -0.00250  -0.00326   0.00011
 119        8PZ        -0.63566  -0.95551   0.00314   0.00525   0.00121
 120        9PX        -0.00038  -0.79159   0.00250   0.00377   0.00102
 121        9PY         1.43894  -0.77607   0.00668   0.00890   0.00034
 122        9PZ         0.85427   1.31410  -0.00864  -0.01424  -0.00458
 123       10PX         0.00055   0.40184  -0.00319  -0.00545  -0.00179
 124       10PY        -0.70887   0.40212  -0.00678  -0.01139  -0.00249
 125       10PZ        -0.41894  -0.68131   0.01139   0.01644   0.00780
 126       11PX        -0.00970  -0.06272  -0.00128   0.00458  -0.00062
 127       11PY         0.26039  -0.07493  -0.02022   0.00639   0.00008
 128       11PZ         0.15716   0.16359  -0.00333   0.02234  -0.00929
                         126       127       128
                           V         V         V
     Eigenvalues --   162.63827 215.45173 215.48282
   1 1   Si 1S         -0.00027   0.00000   0.00080
   2        2S          0.00036  -0.00000  -0.00126
   3        3S         -0.00053   0.00000   0.00260
   4        4S          0.00079  -0.00001  -0.00387
   5        5S          0.01796   0.00004   0.00231
   6        6S         -0.05926  -0.00012   0.03217
   7        7PX        -0.00015  -0.00051  -0.00010
   8        7PY         0.00022  -0.00018  -0.00046
   9        7PZ        -0.00012   0.00031  -0.00043
  10        8PX         0.00042   0.00137   0.00026
  11        8PY        -0.00072   0.00048   0.00134
  12        8PZ         0.00027  -0.00084   0.00119
  13        9PX        -0.00259  -0.00469  -0.00016
  14        9PY         0.00709  -0.00164  -0.00718
  15        9PZ        -0.00017   0.00287  -0.00439
  16       10PX         0.00721   0.00890  -0.00201
  17       10PY        -0.02670   0.00312   0.02511
  18       10PZ        -0.00356  -0.00545   0.01115
  19       11PX         0.01206  -0.01660   0.00271
  20       11PY        -0.05750  -0.00592  -0.03304
  21       11PZ        -0.01346   0.01019  -0.01459
  22 2   H  1S         -0.00168  -0.00001  -0.00228
  23        2S          0.00337   0.00002   0.01250
  24        3S         -0.03950  -0.00003  -0.03201
  25        4PX         0.00175  -0.00024  -0.00022
  26        4PY        -0.00159  -0.00009   0.00082
  27        4PZ         0.00192   0.00015   0.00011
  28 3   H  1S         -0.00409   0.00163  -0.00110
  29        2S          0.01889  -0.01068   0.00399
  30        3S         -0.00010   0.02026  -0.01140
  31        4PX        -0.00333  -0.00065   0.00000
  32        4PY         0.00171   0.00026   0.00056
  33        4PZ         0.00274   0.00042  -0.00140
  34 4   H  1S         -0.00410  -0.00165  -0.00110
  35        2S          0.01889   0.01072   0.00399
  36        3S         -0.00010  -0.02017  -0.01143
  37        4PX         0.00254  -0.00042  -0.00141
  38        4PY         0.00380  -0.00062   0.00006
  39        4PZ        -0.00085   0.00025  -0.00053
  40 5   O  1S         -0.00003  -0.00000  -0.00069
  41        2S         -0.00025   0.00000   0.00161
  42        2PX         0.00119  -0.00092  -0.00036
  43        2PY        -0.00592  -0.00032   0.00071
  44        2PZ        -0.00145   0.00056  -0.00018
  45        3S         -0.00385  -0.00001  -0.00802
  46        3PX        -0.00127   0.00323   0.00134
  47        3PY         0.01183   0.00113  -0.00285
  48        3PZ         0.00472  -0.00196   0.00056
  49        4S         -0.00398   0.00003   0.03127
  50        4PX        -0.00621  -0.00999  -0.00718
  51        4PY        -0.00516  -0.00350   0.02197
  52        4PZ        -0.01312   0.00608   0.00086
  53 6   P  1S         -1.54942  -0.00000   0.00487
  54        2S          1.89513   0.00000  -0.00729
  55        3S         -1.33757  -0.00000   0.01280
  56        4S          0.86915   0.00000  -0.01855
  57        5S         -0.38022   0.00000   0.06032
  58        6S          0.29049  -0.00003  -0.19999
  59        7PX         0.00046   0.00090   0.00054
  60        7PY        -0.00017   0.00032  -0.00037
  61        7PZ         0.00066  -0.00055   0.00067
  62        8PX        -0.00129  -0.00266  -0.00156
  63        8PY         0.00053  -0.00093   0.00106
  64        8PZ        -0.00182   0.00162  -0.00194
  65        9PX         0.00434   0.00714   0.00459
  66        9PY        -0.00253   0.00251  -0.00277
  67        9PZ         0.00567  -0.00435   0.00594
  68       10PX        -0.00748   0.00550  -0.00475
  69       10PY         0.00911   0.00193  -0.00031
  70       10PZ        -0.00705  -0.00336  -0.00796
  71       11PX        -0.02121   0.06301   0.03434
  72       11PY        -0.03031   0.02210  -0.01895
  73       11PZ        -0.05206  -0.03847   0.04542
  74 7   O  1S         -0.00020  -0.00000  -0.00065
  75        2S          0.00016   0.00000   0.00149
  76        2PX         0.00202  -0.00126  -0.00091
  77        2PY         0.00309  -0.00044   0.00030
  78        2PZ         0.00508   0.00077  -0.00132
  79        3S         -0.00506  -0.00000  -0.00794
  80        3PX        -0.00398   0.00422   0.00313
  81        3PY        -0.00623   0.00148  -0.00068
  82        3PZ        -0.01010  -0.00258   0.00474
  83        4S          0.00042   0.00002   0.03154
  84        4PX         0.00108  -0.01165  -0.01255
  85        4PY         0.00171  -0.00409  -0.00545
  86        4PZ         0.00273   0.00711  -0.02370
  87 8   Cl 1S         -0.00285  -1.09067  -1.08991
  88        2S          0.00251   1.35522   1.35446
  89        3S          0.00399  -1.02040  -1.02102
  90        4S         -0.01033   0.68564   0.68806
  91        5S          0.02217  -0.28511  -0.29564
  92        6S         -0.06184   0.16913   0.20008
  93        7PX         0.00723  -0.00108   0.00460
  94        7PY         0.00076   0.00030  -0.00003
  95        7PZ         0.00133  -0.00046   0.00067
  96        8PX         0.00415  -0.00062   0.00265
  97        8PY         0.00044   0.00018  -0.00002
  98        8PZ         0.00079  -0.00027   0.00039
  99        9PX        -0.01517   0.00287  -0.00989
 100        9PY        -0.00170  -0.00065  -0.00001
 101        9PZ        -0.00276   0.00092  -0.00142
 102       10PX         0.01036  -0.00751   0.01294
 103       10PY         0.00300   0.00123   0.00038
 104       10PZ         0.00360  -0.00142   0.00237
 105       11PX        -0.02886   0.03323   0.04148
 106       11PY        -0.00405  -0.00611  -0.00132
 107       11PZ         0.00256   0.00881  -0.01185
 108 9   Cl 1S         -0.00285   1.08986  -1.09072
 109        2S          0.00251  -1.35421   1.35547
 110        3S          0.00399   1.01964  -1.02178
 111        4S         -0.01034  -0.68513   0.68857
 112        5S          0.02219   0.28489  -0.29586
 113        6S         -0.06184  -0.16899   0.20021
 114        7PX        -0.00171   0.00015  -0.00099
 115        7PY        -0.00238  -0.00063  -0.00200
 116        7PZ         0.00678   0.00102   0.00408
 117        8PX        -0.00097   0.00009  -0.00056
 118        8PY        -0.00136  -0.00036  -0.00115
 119        8PZ         0.00390   0.00059   0.00235
 120        9PX         0.00366  -0.00009   0.00218
 121        9PY         0.00493   0.00163   0.00424
 122        9PZ        -0.01424  -0.00262  -0.00878
 123       10PX        -0.00198  -0.00079  -0.00260
 124       10PY        -0.00136  -0.00415  -0.00508
 125       10PZ         0.01109   0.00649   0.01185
 126       11PX         0.01374   0.00112  -0.02302
 127       11PY         0.01096   0.01817  -0.02397
 128       11PZ        -0.02340  -0.02977   0.02757
     Density Matrix:
                           1         2         3         4         5
   1 1   Si 1S          0.37766
   2        2S          0.61548   1.03282
   3        3S         -0.12329  -0.33377   0.63473
   4        4S         -0.15359  -0.39673   0.71040   0.81275
   5        5S          0.01737   0.04739  -0.11991  -0.23117   0.58237
   6        6S          0.02133   0.05921  -0.12934  -0.18337   0.25034
   7        7PX         0.00024   0.00066  -0.00161  -0.00165   0.00156
   8        7PY         0.00032   0.00085  -0.00205  -0.00200   0.00540
   9        7PZ         0.00058   0.00157  -0.00382  -0.00385   0.00565
  10        8PX         0.00028   0.00083  -0.00229  -0.00223   0.00227
  11        8PY         0.00033   0.00096  -0.00281  -0.00263   0.00916
  12        8PZ         0.00065   0.00190  -0.00536  -0.00515   0.00897
  13        9PX        -0.00028  -0.00077   0.00194   0.00219  -0.00035
  14        9PY        -0.00071  -0.00198   0.00467   0.00657  -0.01368
  15        9PZ        -0.00086  -0.00239   0.00586   0.00736  -0.00842
  16       10PX        -0.00097  -0.00269   0.00641   0.00907  -0.01174
  17       10PY         0.00055   0.00148  -0.00326  -0.00658   0.00897
  18       10PZ        -0.00127  -0.00355   0.00862   0.01105  -0.01403
  19       11PX        -0.00093  -0.00259   0.00562   0.00788  -0.00873
  20       11PY         0.00030   0.00085  -0.00161  -0.00035  -0.01158
  21       11PZ        -0.00135  -0.00374   0.00825   0.01265  -0.02091
  22 2   H  1S          0.00453   0.01242  -0.02849  -0.04551   0.08943
  23        2S          0.00817   0.02260  -0.05194  -0.08158   0.15620
  24        3S          0.00083   0.00216  -0.00585  -0.01176   0.03367
  25        4PX        -0.00041  -0.00118   0.00277   0.00421  -0.00741
  26        4PY         0.00112   0.00318  -0.00745  -0.01144   0.02050
  27        4PZ        -0.00003  -0.00009   0.00022   0.00026  -0.00025
  28 3   H  1S          0.00444   0.01219  -0.02799  -0.04455   0.08147
  29        2S          0.00740   0.02049  -0.04690  -0.07264   0.12509
  30        3S         -0.00073  -0.00218   0.00346   0.00084   0.01712
  31        4PX        -0.00031  -0.00089   0.00209   0.00316  -0.00512
  32        4PY        -0.00052  -0.00147   0.00346   0.00519  -0.00849
  33        4PZ         0.00083   0.00235  -0.00551  -0.00836   0.01369
  34 4   H  1S          0.00444   0.01219  -0.02800  -0.04455   0.08149
  35        2S          0.00740   0.02050  -0.04691  -0.07266   0.12516
  36        3S         -0.00073  -0.00218   0.00346   0.00084   0.01712
  37        4PX         0.00102   0.00291  -0.00683  -0.01033   0.01689
  38        4PY        -0.00005  -0.00013   0.00030   0.00043  -0.00072
  39        4PZ         0.00001   0.00003  -0.00005  -0.00010   0.00022
  40 5   O  1S         -0.00007  -0.00019   0.00024  -0.00012   0.00115
  41        2S         -0.00010  -0.00025   0.00019  -0.00024   0.00217
  42        2PX        -0.00120  -0.00330   0.00747   0.01221  -0.02395
  43        2PY        -0.00164  -0.00439   0.00916   0.01945  -0.04467
  44        2PZ        -0.00291  -0.00792   0.01749   0.03117  -0.06483
  45        3S          0.00000  -0.00017   0.00171   0.00307  -0.01083
  46        3PX        -0.00170  -0.00464   0.01047   0.01719  -0.03386
  47        3PY        -0.00280  -0.00757   0.01592   0.03216  -0.07064
  48        3PZ        -0.00439  -0.01194   0.02628   0.04662  -0.09596
  49        4S         -0.00220  -0.00605   0.01451   0.02591  -0.05907
  50        4PX        -0.00165  -0.00458   0.01030   0.01591  -0.02873
  51        4PY        -0.00123  -0.00323   0.00620   0.01789  -0.04870
  52        4PZ        -0.00341  -0.00935   0.02042   0.03632  -0.07494
  53 6   P  1S         -0.00003  -0.00008   0.00018   0.00030   0.00049
  54        2S         -0.00008  -0.00021   0.00048   0.00080   0.00143
  55        3S          0.00015   0.00040  -0.00089  -0.00146  -0.00328
  56        4S          0.00040   0.00110  -0.00249  -0.00412  -0.00259
  57        5S         -0.00078  -0.00210   0.00475   0.00859  -0.00228
  58        6S         -0.00079  -0.00227   0.00494   0.00325   0.01833
  59        7PX         0.00004   0.00010  -0.00014  -0.00063   0.00119
  60        7PY        -0.00018  -0.00047   0.00099   0.00230  -0.00623
  61        7PZ        -0.00004  -0.00011   0.00034   0.00030  -0.00164
  62        8PX         0.00007   0.00018  -0.00027  -0.00114   0.00219
  63        8PY        -0.00034  -0.00092   0.00191   0.00440  -0.01162
  64        8PZ        -0.00008  -0.00023   0.00065   0.00065  -0.00310
  65        9PX        -0.00006  -0.00015   0.00015   0.00116  -0.00225
  66        9PY         0.00058   0.00155  -0.00322  -0.00746   0.01906
  67        9PZ         0.00024   0.00064  -0.00161  -0.00239   0.00728
  68       10PX        -0.00018  -0.00046   0.00064   0.00238  -0.00185
  69       10PY         0.00072   0.00200  -0.00406  -0.00792   0.02011
  70       10PZ         0.00011   0.00040  -0.00130  -0.00067   0.00856
  71       11PX         0.00005   0.00014  -0.00016  -0.00119   0.00434
  72       11PY         0.00018   0.00058  -0.00145   0.00234  -0.01927
  73       11PZ         0.00018   0.00056  -0.00107  -0.00058  -0.00398
  74 7   O  1S          0.00001   0.00003  -0.00006  -0.00033   0.00288
  75        2S          0.00003   0.00007  -0.00009  -0.00065   0.00507
  76        2PX         0.00015   0.00039  -0.00062  -0.00286   0.00936
  77        2PY        -0.00085  -0.00227   0.00465   0.01160  -0.03570
  78        2PZ        -0.00024  -0.00067   0.00165   0.00198  -0.00520
  79        3S         -0.00018  -0.00045   0.00080   0.00333  -0.01857
  80        3PX         0.00021   0.00054  -0.00087  -0.00398   0.01297
  81        3PY        -0.00112  -0.00298   0.00606   0.01570  -0.04990
  82        3PZ        -0.00029  -0.00082   0.00207   0.00252  -0.00746
  83        4S          0.00017   0.00044  -0.00118  -0.00100  -0.01124
  84        4PX         0.00018   0.00047  -0.00065  -0.00386   0.01449
  85        4PY        -0.00153  -0.00410   0.00843   0.01953  -0.05454
  86        4PZ        -0.00057  -0.00160   0.00379   0.00490  -0.00763
  87 8   Cl 1S         -0.00003  -0.00007   0.00019   0.00018  -0.00032
  88        2S         -0.00007  -0.00021   0.00054   0.00052  -0.00092
  89        3S          0.00015   0.00044  -0.00113  -0.00110   0.00187
  90        4S          0.00027   0.00077  -0.00199  -0.00215   0.00408
  91        5S         -0.00046  -0.00128   0.00324   0.00421  -0.00819
  92        6S         -0.00042  -0.00117   0.00282   0.00326  -0.00559
  93        7PX         0.00014   0.00042  -0.00120  -0.00068  -0.00124
  94        7PY        -0.00038  -0.00105   0.00233   0.00462  -0.01335
  95        7PZ        -0.00032  -0.00090   0.00219   0.00310  -0.00870
  96        8PX        -0.00005  -0.00016   0.00044   0.00024   0.00047
  97        8PY         0.00015   0.00040  -0.00090  -0.00176   0.00502
  98        8PZ         0.00013   0.00035  -0.00085  -0.00120   0.00332
  99        9PX        -0.00017  -0.00050   0.00139   0.00087   0.00117
 100        9PY         0.00045   0.00123  -0.00277  -0.00549   0.01579
 101        9PZ         0.00036   0.00102  -0.00248  -0.00352   0.00990
 102       10PX        -0.00037  -0.00106   0.00305   0.00193   0.00230
 103       10PY         0.00106   0.00290  -0.00643  -0.01241   0.03469
 104       10PZ         0.00092   0.00256  -0.00616  -0.00875   0.02362
 105       11PX        -0.00027  -0.00079   0.00193   0.00168  -0.00040
 106       11PY         0.00052   0.00141  -0.00313  -0.00681   0.02068
 107       11PZ         0.00046   0.00127  -0.00313  -0.00430   0.01165
 108 9   Cl 1S         -0.00003  -0.00007   0.00019   0.00018  -0.00033
 109        2S         -0.00007  -0.00021   0.00054   0.00052  -0.00093
 110        3S          0.00015   0.00044  -0.00113  -0.00110   0.00188
 111        4S          0.00027   0.00077  -0.00199  -0.00216   0.00410
 112        5S         -0.00046  -0.00128   0.00324   0.00422  -0.00822
 113        6S         -0.00042  -0.00117   0.00282   0.00326  -0.00559
 114        7PX        -0.00013  -0.00039   0.00110   0.00060  -0.00043
 115        7PY        -0.00048  -0.00133   0.00314   0.00507  -0.01305
 116        7PZ        -0.00016  -0.00041   0.00079   0.00232  -0.00921
 117        8PX         0.00005   0.00015  -0.00042  -0.00024   0.00020
 118        8PY         0.00018   0.00051  -0.00121  -0.00193   0.00492
 119        8PZ         0.00006   0.00016  -0.00033  -0.00091   0.00349
 120        9PX         0.00014   0.00042  -0.00120  -0.00059   0.00029
 121        9PY         0.00056   0.00155  -0.00368  -0.00601   0.01546
 122        9PZ         0.00018   0.00046  -0.00091  -0.00264   0.01045
 123       10PX         0.00038   0.00109  -0.00304  -0.00199   0.00225
 124       10PY         0.00133   0.00366  -0.00858  -0.01379   0.03464
 125       10PZ         0.00046   0.00125  -0.00245  -0.00638   0.02368
 126       11PX         0.00022   0.00063  -0.00173  -0.00087  -0.00006
 127       11PY         0.00069   0.00191  -0.00441  -0.00769   0.02077
 128       11PZ         0.00016   0.00039  -0.00089  -0.00274   0.01145
                           6         7         8         9        10
   6        6S          0.17307
   7        7PX         0.00846   0.33739
   8        7PY         0.00056  -0.00089   0.33703
   9        7PZ         0.01416  -0.00147  -0.00200   0.33442
  10        8PX         0.01480   0.57555  -0.00138  -0.00228   0.98184
  11        8PY         0.00128  -0.00140   0.57492  -0.00317  -0.00215
  12        8PZ         0.02494  -0.00229  -0.00314   0.57090  -0.00349
  13        9PX        -0.01957   0.02305   0.00161   0.00267   0.03823
  14        9PY        -0.01018   0.00183   0.02486   0.00464   0.00305
  15        9PZ        -0.03784   0.00279   0.00429   0.02902   0.00457
  16       10PX        -0.02856  -0.04338   0.00443   0.00684  -0.07526
  17       10PY         0.01188   0.00355  -0.04566   0.00600   0.00599
  18       10PZ        -0.03988   0.00633   0.00743  -0.03135   0.01077
  19       11PX        -0.01055  -0.00506   0.00277   0.00096  -0.00890
  20       11PY         0.01209   0.00380  -0.00904   0.00369   0.00657
  21       11PZ        -0.01028   0.00156   0.00200  -0.00097   0.00267
  22 2   H  1S          0.03980  -0.00942   0.02339  -0.00187  -0.01636
  23        2S          0.06871  -0.01996   0.04574  -0.00619  -0.03470
  24        3S          0.01679  -0.00914   0.01928  -0.00378  -0.01591
  25        4PX        -0.00423   0.00031  -0.00198   0.00032   0.00053
  26        4PY         0.00952  -0.00236   0.00509  -0.00058  -0.00411
  27        4PZ        -0.00141   0.00010   0.00004  -0.00040   0.00017
  28 3   H  1S          0.05561  -0.00928  -0.01329   0.01927  -0.01608
  29        2S          0.08942  -0.01944  -0.02650   0.03835  -0.03366
  30        3S          0.01553  -0.01186  -0.01288   0.01826  -0.02057
  31        4PX        -0.00424   0.00029   0.00120  -0.00177   0.00049
  32        4PY        -0.00607   0.00117   0.00113  -0.00222   0.00202
  33        4PZ         0.00918  -0.00207  -0.00275   0.00395  -0.00358
  34 4   H  1S          0.05561   0.02510  -0.00114  -0.00177   0.04373
  35        2S          0.08945   0.05029  -0.00186  -0.00435   0.08765
  36        3S          0.01556   0.02493   0.00013  -0.00428   0.04341
  37        4PX         0.01177   0.00624  -0.00014  -0.00039   0.01087
  38        4PY        -0.00041   0.00022  -0.00043   0.00014   0.00038
  39        4PZ        -0.00063   0.00009   0.00013  -0.00045   0.00015
  40 5   O  1S          0.01801   0.00114   0.00129   0.00262   0.00212
  41        2S          0.02792   0.00182   0.00202   0.00414   0.00338
  42        2PX        -0.00471   0.00018   0.00455   0.00840   0.00048
  43        2PY         0.02117   0.00408   0.00394   0.01087   0.00748
  44        2PZ         0.00428   0.00813   0.01164   0.01664   0.01467
  45        3S         -0.07803  -0.00479  -0.00477  -0.01058  -0.00894
  46        3PX        -0.00564   0.00010   0.00652   0.01224   0.00042
  47        3PY         0.02707   0.00605   0.00586   0.01619   0.01109
  48        3PZ         0.00610   0.01197   0.01696   0.02426   0.02160
  49        4S         -0.08505  -0.00525  -0.00665  -0.01242  -0.00985
  50        4PX        -0.00095   0.00249   0.00731   0.01315   0.00462
  51        4PY         0.04582   0.00625   0.00608   0.01542   0.01137
  52        4PZ         0.02452   0.01254   0.01717   0.02742   0.02265
  53 6   P  1S         -0.00281  -0.00001   0.00017   0.00008   0.00001
  54        2S         -0.00781  -0.00002   0.00046   0.00022   0.00003
  55        3S          0.01561   0.00009  -0.00097  -0.00040   0.00002
  56        4S          0.02772   0.00004  -0.00207  -0.00112  -0.00019
  57        5S         -0.04076  -0.00014   0.00379   0.00193   0.00018
  58        6S         -0.03168  -0.00319   0.00773  -0.00075  -0.00530
  59        7PX         0.00123  -0.00038  -0.00041  -0.00048  -0.00070
  60        7PY         0.00308   0.00042   0.00038   0.00103   0.00077
  61        7PZ         0.00380  -0.00001  -0.00032  -0.00042  -0.00001
  62        8PX         0.00192  -0.00065  -0.00068  -0.00084  -0.00121
  63        8PY         0.00516   0.00078   0.00068   0.00188   0.00143
  64        8PZ         0.00613  -0.00000  -0.00051  -0.00067  -0.00000
  65        9PX        -0.00115   0.00082   0.00062   0.00097   0.00155
  66        9PY        -0.00726  -0.00118  -0.00128  -0.00293  -0.00217
  67        9PZ        -0.00608  -0.00007   0.00002   0.00035  -0.00014
  68       10PX        -0.01188   0.00253   0.00323   0.00215   0.00470
  69       10PY        -0.01912  -0.00074  -0.00225  -0.00386  -0.00148
  70       10PZ        -0.03050  -0.00013   0.00263   0.00366  -0.00019
  71       11PX        -0.00835  -0.00041  -0.00053  -0.00003  -0.00072
  72       11PY         0.02510   0.00189   0.00042   0.00366   0.00326
  73       11PZ         0.00070   0.00136  -0.00027   0.00147   0.00239
  74 7   O  1S         -0.00439   0.00001   0.00018   0.00013   0.00005
  75        2S         -0.00788   0.00002   0.00027   0.00018   0.00007
  76        2PX        -0.00684   0.00013  -0.00002  -0.00077   0.00023
  77        2PY         0.03162   0.00185   0.00245   0.00409   0.00322
  78        2PZ         0.00702   0.00031   0.00104   0.00169   0.00058
  79        3S          0.02527   0.00008  -0.00032  -0.00005   0.00003
  80        3PX        -0.00939   0.00014  -0.00012  -0.00106   0.00025
  81        3PY         0.04509   0.00266   0.00341   0.00588   0.00462
  82        3PZ         0.01060   0.00054   0.00134   0.00239   0.00099
  83        4S          0.03742  -0.00070  -0.00371  -0.00328  -0.00142
  84        4PX        -0.01388   0.00044   0.00081  -0.00060   0.00077
  85        4PY         0.04041   0.00277   0.00468   0.00660   0.00485
  86        4PZ         0.00058   0.00053   0.00339   0.00390   0.00105
  87 8   Cl 1S          0.00017  -0.00013   0.00005   0.00003  -0.00022
  88        2S          0.00051  -0.00038   0.00013   0.00009  -0.00062
  89        3S         -0.00076   0.00075  -0.00025  -0.00017   0.00122
  90        4S         -0.00007   0.00162  -0.00060  -0.00046   0.00272
  91        5S         -0.00290  -0.00329   0.00120   0.00104  -0.00568
  92        6S         -0.00503  -0.00125   0.00008  -0.00005  -0.00217
  93        7PX         0.00570   0.00013  -0.00031  -0.00032   0.00029
  94        7PY        -0.00078  -0.00225  -0.00009  -0.00025  -0.00400
  95        7PZ         0.00388  -0.00103   0.00034   0.00014  -0.00184
  96        8PX        -0.00225  -0.00005   0.00011   0.00012  -0.00011
  97        8PY         0.00030   0.00085   0.00005   0.00010   0.00151
  98        8PZ        -0.00149   0.00039  -0.00012  -0.00006   0.00069
  99        9PX        -0.00555  -0.00012   0.00037   0.00036  -0.00028
 100        9PY         0.00141   0.00277  -0.00004   0.00020   0.00492
 101        9PZ        -0.00384   0.00130  -0.00046  -0.00014   0.00233
 102       10PX        -0.01828  -0.00052   0.00082   0.00104  -0.00109
 103       10PY         0.00303   0.00595   0.00054   0.00070   0.01060
 104       10PZ        -0.00998   0.00278  -0.00084  -0.00052   0.00497
 105       11PX        -0.00474   0.00121   0.00024   0.00034   0.00204
 106       11PY        -0.00124   0.00329  -0.00051   0.00034   0.00588
 107       11PZ        -0.00217   0.00125  -0.00091  -0.00011   0.00225
 108 9   Cl 1S          0.00018   0.00005   0.00011  -0.00008   0.00008
 109        2S          0.00052   0.00014   0.00031  -0.00023   0.00022
 110        3S         -0.00079  -0.00027  -0.00061   0.00046  -0.00041
 111        4S         -0.00012  -0.00064  -0.00140   0.00093  -0.00105
 112        5S         -0.00283   0.00139   0.00285  -0.00182   0.00240
 113        6S         -0.00501   0.00035   0.00065  -0.00103   0.00058
 114        7PX         0.00159   0.00002   0.00037   0.00042   0.00009
 115        7PY        -0.00230   0.00066   0.00119  -0.00179   0.00126
 116        7PZ         0.00632   0.00019   0.00033  -0.00102   0.00032
 117        8PX        -0.00059  -0.00001  -0.00014  -0.00017  -0.00004
 118        8PY         0.00091  -0.00025  -0.00043   0.00068  -0.00048
 119        8PZ        -0.00248  -0.00007  -0.00012   0.00039  -0.00012
 120        9PX        -0.00190   0.00002  -0.00041  -0.00045  -0.00002
 121        9PY         0.00277  -0.00080  -0.00159   0.00213  -0.00152
 122        9PZ        -0.00599  -0.00025  -0.00051   0.00126  -0.00042
 123       10PX        -0.00334  -0.00022  -0.00118  -0.00118  -0.00055
 124       10PY         0.00850  -0.00198  -0.00301   0.00485  -0.00378
 125       10PZ        -0.01895  -0.00044  -0.00071   0.00269  -0.00071
 126       11PX         0.00043   0.00028  -0.00015  -0.00111   0.00042
 127       11PY         0.00068  -0.00040  -0.00183   0.00189  -0.00086
 128       11PZ        -0.00527  -0.00041  -0.00146   0.00214  -0.00072
                          11        12        13        14        15
  11        8PY         0.98073
  12        8PZ        -0.00495   0.97466
  13        9PX         0.00271   0.00437   0.06901
  14        9PY         0.04144   0.00783  -0.00364   0.06441
  15        9PZ         0.00726   0.04816  -0.00498  -0.00961   0.05710
  16       10PX         0.00757   0.01168   0.08053  -0.00962  -0.01536
  17       10PY        -0.07910   0.01015  -0.00715   0.08140  -0.01464
  18       10PZ         0.01274  -0.05477  -0.01394  -0.01869   0.05296
  19       11PX         0.00481   0.00164   0.01753  -0.00616  -0.00150
  20       11PY        -0.01578   0.00638  -0.00892   0.02726  -0.00824
  21       11PZ         0.00346  -0.00185  -0.00310  -0.00370   0.00906
  22 2   H  1S          0.04073  -0.00320   0.02263  -0.05555   0.00487
  23        2S          0.07968  -0.01066   0.04839  -0.11033   0.01531
  24        3S          0.03352  -0.00662   0.02114  -0.04192   0.01031
  25        4PX        -0.00346   0.00054  -0.00036   0.00466  -0.00070
  26        4PY         0.00886  -0.00100   0.00557  -0.01155   0.00143
  27        4PZ         0.00007  -0.00072  -0.00018  -0.00005   0.00140
  28 3   H  1S         -0.02308   0.03367   0.02225   0.03135  -0.04668
  29        2S         -0.04601   0.06705   0.04661   0.06296  -0.09392
  30        3S         -0.02240   0.03183   0.02819   0.03204  -0.04199
  31        4PX         0.00208  -0.00310  -0.00029  -0.00278   0.00433
  32        4PY         0.00194  -0.00389  -0.00271  -0.00221   0.00537
  33        4PZ        -0.00477   0.00689   0.00490   0.00628  -0.00904
  34 4   H  1S         -0.00193  -0.00296  -0.06031   0.00216   0.00388
  35        2S         -0.00313  -0.00726  -0.12189   0.00340   0.00929
  36        3S          0.00023  -0.00736  -0.05878   0.00128   0.01128
  37        4PX        -0.00023  -0.00065  -0.01441   0.00010   0.00076
  38        4PY        -0.00075   0.00024  -0.00051   0.00135  -0.00029
  39        4PZ         0.00022  -0.00080  -0.00012  -0.00032   0.00152
  40 5   O  1S          0.00243   0.00486  -0.00228  -0.00386  -0.00596
  41        2S          0.00384   0.00774  -0.00360  -0.00621  -0.00946
  42        2PX         0.00785   0.01489  -0.00718  -0.00821  -0.01867
  43        2PY         0.00729   0.01980  -0.01109  -0.01332  -0.02656
  44        2PZ         0.02040   0.02988  -0.02031  -0.02186  -0.04448
  45        3S         -0.00936  -0.02001   0.00881   0.01647   0.02387
  46        3PX         0.01127   0.02170  -0.00969  -0.01178  -0.02696
  47        3PY         0.01083   0.02948  -0.01638  -0.01948  -0.03952
  48        3PZ         0.02978   0.04358  -0.02960  -0.03198  -0.06420
  49        4S         -0.01252  -0.02333   0.01205   0.02063   0.03162
  50        4PX         0.01264   0.02340  -0.01589  -0.01380  -0.03014
  51        4PY         0.01121   0.02803  -0.01697  -0.02009  -0.03795
  52        4PZ         0.03014   0.04918  -0.03194  -0.03278  -0.07346
  53 6   P  1S          0.00029   0.00019  -0.00005  -0.00047  -0.00035
  54        2S          0.00081   0.00050  -0.00012  -0.00127  -0.00093
  55        3S         -0.00171  -0.00095   0.00013   0.00268   0.00175
  56        4S         -0.00367  -0.00241   0.00042   0.00615   0.00421
  57        5S          0.00678   0.00416   0.00002  -0.01304  -0.00740
  58        6S          0.01341  -0.00089   0.00652  -0.01637   0.00117
  59        7PX        -0.00075  -0.00088   0.00146   0.00106   0.00095
  60        7PY         0.00070   0.00190  -0.00055  -0.00208  -0.00282
  61        7PZ        -0.00057  -0.00077   0.00002  -0.00018   0.00118
  62        8PX        -0.00124  -0.00153   0.00250   0.00175   0.00166
  63        8PY         0.00126   0.00346  -0.00111  -0.00374  -0.00517
  64        8PZ        -0.00090  -0.00123   0.00002  -0.00050   0.00186
  65        9PX         0.00114   0.00177  -0.00302  -0.00155  -0.00191
  66        9PY        -0.00239  -0.00542   0.00199   0.00613   0.00816
  67        9PZ        -0.00001   0.00065   0.00013   0.00237  -0.00084
  68       10PX         0.00573   0.00396  -0.00956  -0.00722  -0.00400
  69       10PY        -0.00420  -0.00734  -0.00072   0.01110   0.01079
  70       10PZ         0.00448   0.00656  -0.00026   0.00013  -0.01000
  71       11PX        -0.00101  -0.00007  -0.00146   0.00115   0.00015
  72       11PY         0.00094   0.00647  -0.00381  -0.00345  -0.00756
  73       11PZ        -0.00049   0.00256  -0.00270   0.00051  -0.00523
  74 7   O  1S          0.00029   0.00025  -0.00029   0.00018  -0.00038
  75        2S          0.00041   0.00035  -0.00046   0.00046  -0.00049
  76        2PX        -0.00014  -0.00136  -0.00011   0.00033   0.00126
  77        2PY         0.00456   0.00731  -0.00341  -0.00806  -0.00977
  78        2PZ         0.00181   0.00299  -0.00090  -0.00365  -0.00433
  79        3S         -0.00024  -0.00009   0.00094  -0.00290  -0.00013
  80        3PX        -0.00036  -0.00187  -0.00021   0.00056   0.00178
  81        3PY         0.00635   0.01047  -0.00491  -0.01131  -0.01391
  82        3PZ         0.00234   0.00422  -0.00137  -0.00496  -0.00619
  83        4S         -0.00619  -0.00587   0.00403   0.00365   0.00868
  84        4PX         0.00123  -0.00104  -0.00056  -0.00056   0.00024
  85        4PY         0.00859   0.01181  -0.00542  -0.01358  -0.01616
  86        4PZ         0.00589   0.00693  -0.00257  -0.00819  -0.00981
  87 8   Cl 1S          0.00009   0.00006   0.00024  -0.00020  -0.00010
  88        2S          0.00026   0.00016   0.00068  -0.00058  -0.00028
  89        3S         -0.00050  -0.00029  -0.00132   0.00110   0.00049
  90        4S         -0.00111  -0.00081  -0.00337   0.00191   0.00128
  91        5S          0.00206   0.00180   0.00768  -0.00247  -0.00251
  92        6S          0.00010  -0.00014   0.00104  -0.00175  -0.00010
  93        7PX        -0.00045  -0.00058  -0.00021   0.00020   0.00137
  94        7PY        -0.00011  -0.00035   0.00629  -0.00068  -0.00032
  95        7PZ         0.00047   0.00023   0.00311  -0.00045  -0.00075
  96        8PX         0.00016   0.00023   0.00007  -0.00009  -0.00053
  97        8PY         0.00007   0.00015  -0.00236   0.00024   0.00010
  98        8PZ        -0.00017  -0.00010  -0.00116   0.00017   0.00030
  99        9PX         0.00054   0.00065   0.00019  -0.00006  -0.00146
 100        9PY        -0.00012   0.00026  -0.00766   0.00097   0.00051
 101        9PZ        -0.00066  -0.00023  -0.00385   0.00058   0.00078
 102       10PX         0.00119   0.00191   0.00071  -0.00108  -0.00424
 103       10PY         0.00082   0.00102  -0.01639   0.00128   0.00079
 104       10PZ        -0.00116  -0.00091  -0.00827   0.00118   0.00245
 105       11PX         0.00031   0.00061  -0.00389   0.00028  -0.00118
 106       11PY        -0.00098   0.00048  -0.00996   0.00270   0.00046
 107       11PZ        -0.00138  -0.00017  -0.00426   0.00150   0.00116
 108 9   Cl 1S          0.00020  -0.00012  -0.00007  -0.00031   0.00009
 109        2S          0.00056  -0.00035  -0.00018  -0.00088   0.00025
 110        3S         -0.00108   0.00071   0.00033   0.00168  -0.00052
 111        4S         -0.00244   0.00151   0.00127   0.00356  -0.00157
 112        5S          0.00491  -0.00315  -0.00346  -0.00641   0.00431
 113        6S          0.00108  -0.00184   0.00037  -0.00200   0.00031
 114        7PX         0.00052   0.00066  -0.00059  -0.00020  -0.00077
 115        7PY         0.00212  -0.00319  -0.00264  -0.00392   0.00432
 116        7PZ         0.00060  -0.00178  -0.00042  -0.00154   0.00287
 117        8PX        -0.00020  -0.00026   0.00024   0.00009   0.00031
 118        8PY        -0.00077   0.00121   0.00100   0.00147  -0.00162
 119        8PZ        -0.00022   0.00067   0.00016   0.00056  -0.00109
 120        9PX        -0.00056  -0.00070   0.00059   0.00011   0.00076
 121        9PY        -0.00281   0.00379   0.00316   0.00480  -0.00526
 122        9PZ        -0.00091   0.00219   0.00056   0.00212  -0.00343
 123       10PX        -0.00174  -0.00186   0.00195   0.00117   0.00229
 124       10PY        -0.00537   0.00863   0.00735   0.01030  -0.01119
 125       10PZ        -0.00128   0.00468   0.00110   0.00340  -0.00774
 126       11PX        -0.00005  -0.00181   0.00017  -0.00097   0.00255
 127       11PY        -0.00328   0.00341   0.00244   0.00612  -0.00494
 128       11PZ        -0.00256   0.00373   0.00172   0.00525  -0.00630
                          16        17        18        19        20
  16       10PX         0.12046
  17       10PY        -0.01908   0.13631
  18       10PZ        -0.02777  -0.02800   0.06914
  19       11PX         0.02670  -0.01127  -0.00618   0.01250
  20       11PY        -0.01400   0.04283  -0.01348  -0.00713   0.03367
  21       11PZ        -0.00779  -0.00894   0.00862  -0.00260   0.00113
  22 2   H  1S          0.03233  -0.07646   0.00866   0.00970  -0.02739
  23        2S          0.06560  -0.14600   0.02284   0.01997  -0.05664
  24        3S          0.02780  -0.05715   0.01240   0.00532  -0.00739
  25        4PX        -0.00068   0.00576  -0.00105  -0.00043   0.00192
  26        4PY         0.00721  -0.01464   0.00216   0.00195  -0.00565
  27        4PZ        -0.00022  -0.00020   0.00153  -0.00001  -0.00028
  28 3   H  1S          0.03076   0.04801  -0.05746   0.00127   0.01572
  29        2S          0.06334   0.09014  -0.11160   0.00291   0.02697
  30        3S          0.03473   0.03704  -0.05156   0.00120   0.01110
  31        4PX        -0.00068  -0.00354   0.00476   0.00033  -0.00129
  32        4PY        -0.00344  -0.00307   0.00604  -0.00014  -0.00093
  33        4PZ         0.00650   0.00905  -0.01089   0.00025   0.00271
  34 4   H  1S         -0.07980   0.00892   0.01023  -0.01681   0.00930
  35        2S         -0.15474   0.01304   0.02193  -0.03103   0.01495
  36        3S         -0.07114  -0.00043   0.01329  -0.00850   0.00764
  37        4PX        -0.01798   0.00113   0.00208  -0.00349   0.00178
  38        4PY        -0.00087   0.00164  -0.00023  -0.00031   0.00057
  39        4PZ        -0.00077  -0.00012   0.00170  -0.00019  -0.00016
  40 5   O  1S         -0.00084   0.00715   0.00273  -0.00210  -0.00175
  41        2S         -0.00157   0.01158   0.00409  -0.00343  -0.00276
  42        2PX         0.03062  -0.02015  -0.02858   0.01450   0.00139
  43        2PY        -0.00908   0.00013  -0.03834   0.00359   0.00373
  44        2PZ        -0.02222  -0.05651  -0.02781  -0.00817  -0.00761
  45        3S          0.00617  -0.03771  -0.01158   0.00938   0.00742
  46        3PX         0.04387  -0.02807  -0.04041   0.02016   0.00182
  47        3PY        -0.01360  -0.00166  -0.05694   0.00530   0.00440
  48        3PZ        -0.03209  -0.08068  -0.04017  -0.01132  -0.01128
  49        4S          0.00062  -0.03214  -0.01742   0.01720   0.01349
  50        4PX         0.04232  -0.02908  -0.04124   0.02061   0.00279
  51        4PY        -0.01684  -0.00190  -0.06156   0.00863   0.00834
  52        4PZ        -0.03419  -0.08167  -0.04558  -0.01542  -0.00980
  53 6   P  1S          0.00019  -0.00074  -0.00012   0.00118  -0.00570
  54        2S          0.00055  -0.00209  -0.00031   0.00325  -0.01571
  55        3S         -0.00118   0.00409   0.00043  -0.00668   0.03211
  56        4S         -0.00193   0.00794   0.00141  -0.01229   0.05903
  57        5S          0.00236  -0.01208  -0.00304   0.02067  -0.09437
  58        6S          0.01896  -0.02236   0.01805   0.01452  -0.07668
  59        7PX        -0.00050   0.00177   0.00249   0.00108  -0.00225
  60        7PY        -0.00369   0.00228  -0.00393  -0.00200   0.00418
  61        7PZ        -0.00065   0.00502   0.00042  -0.00072  -0.00175
  62        8PX        -0.00066   0.00287   0.00441   0.00175  -0.00405
  63        8PY        -0.00664   0.00345  -0.00754  -0.00324   0.00691
  64        8PZ        -0.00107   0.00803   0.00054  -0.00103  -0.00336
  65        9PX        -0.00037  -0.00230  -0.00526  -0.00207   0.00545
  66        9PY         0.00918  -0.00175   0.01284   0.00297  -0.00727
  67        9PZ         0.00134  -0.00593   0.00079   0.00048   0.00548
  68       10PX         0.00503  -0.01589  -0.00768  -0.00984   0.00843
  69       10PY         0.00954  -0.01807   0.00290   0.01603  -0.02815
  70       10PZ         0.00695  -0.03875  -0.00679   0.00826   0.00286
  71       11PX         0.00707   0.00060   0.00043  -0.01276  -0.00368
  72       11PY        -0.00986  -0.00235  -0.02152   0.00110   0.00977
  73       11PZ        -0.00558  -0.00450  -0.00463   0.00399   0.00797
  74 7   O  1S          0.00116  -0.00238   0.00053   0.00222  -0.00733
  75        2S          0.00193  -0.00401   0.00086   0.00366  -0.01198
  76        2PX        -0.00061   0.00262   0.00886  -0.02464  -0.00735
  77        2PY        -0.01376  -0.00493  -0.02242  -0.00047   0.00606
  78        2PZ        -0.00057   0.00439  -0.00349   0.00587   0.00769
  79        3S         -0.00592   0.00997  -0.00395  -0.01065   0.03468
  80        3PX        -0.00055   0.00424   0.01194  -0.03444  -0.00985
  81        3PY        -0.01930  -0.00698  -0.03193  -0.00054   0.00861
  82        3PZ        -0.00161   0.00658  -0.00517   0.00800   0.01141
  83        4S         -0.00839   0.03423   0.00594  -0.01638   0.05043
  84        4PX        -0.00138  -0.00240   0.01287  -0.03555  -0.01674
  85        4PY        -0.01937  -0.01411  -0.03401   0.00062   0.00388
  86        4PZ         0.00309  -0.00623  -0.00859   0.01317  -0.00036
  87 8   Cl 1S          0.00064   0.00035   0.00010  -0.00068  -0.00066
  88        2S          0.00184   0.00101   0.00027  -0.00196  -0.00186
  89        3S         -0.00362  -0.00175  -0.00049   0.00401   0.00297
  90        4S         -0.00741  -0.00243  -0.00052   0.00628   0.00574
  91        5S          0.01294   0.00097  -0.00067  -0.00688  -0.00497
  92        6S          0.01053  -0.00072  -0.00089  -0.01821   0.00683
  93        7PX        -0.00266   0.00075  -0.00206   0.00060   0.01608
  94        7PY         0.00855   0.00216   0.00221   0.00351   0.01064
  95        7PZ         0.00463  -0.00029   0.00408   0.00051   0.01115
  96        8PX         0.00111  -0.00034   0.00075  -0.00030  -0.00610
  97        8PY        -0.00322  -0.00085  -0.00084  -0.00134  -0.00406
  98        8PZ        -0.00175   0.00011  -0.00153  -0.00019  -0.00426
  99        9PX         0.00226  -0.00070   0.00226  -0.00043  -0.01654
 100        9PY        -0.01050  -0.00186  -0.00232  -0.00416  -0.01188
 101        9PZ        -0.00565   0.00077  -0.00475  -0.00079  -0.01259
 102       10PX         0.01071  -0.00402   0.00389  -0.00418  -0.04160
 103       10PY        -0.02314  -0.00601  -0.00511  -0.00979  -0.02831
 104       10PZ        -0.01278   0.00102  -0.00960  -0.00168  -0.02969
 105       11PX        -0.00111  -0.00161   0.00137  -0.00553  -0.00840
 106       11PY        -0.01051   0.00016  -0.00196  -0.00476  -0.01242
 107       11PZ        -0.00561   0.00483  -0.00727  -0.00078  -0.01462
 108 9   Cl 1S         -0.00030   0.00002   0.00068   0.00058  -0.00022
 109        2S         -0.00087   0.00006   0.00194   0.00166  -0.00059
 110        3S          0.00163   0.00010  -0.00371  -0.00316   0.00045
 111        4S          0.00320   0.00131  -0.00702  -0.00527   0.00168
 112        5S         -0.00533  -0.00547   0.01053   0.00557  -0.00061
 113        6S         -0.00396  -0.00585   0.00798   0.00819   0.01601
 114        7PX         0.00291  -0.00073   0.00162  -0.00055  -0.00099
 115        7PY        -0.00065  -0.00234   0.01035  -0.00682   0.00110
 116        7PZ        -0.00056  -0.00006   0.00296  -0.00886   0.01804
 117        8PX        -0.00108   0.00034  -0.00063   0.00019   0.00035
 118        8PY         0.00027   0.00090  -0.00394   0.00259  -0.00046
 119        8PZ         0.00020  -0.00007  -0.00107   0.00340  -0.00683
 120        9PX        -0.00355   0.00067  -0.00166   0.00097   0.00068
 121        9PY         0.00075   0.00334  -0.01186   0.00795  -0.00169
 122        9PZ         0.00069   0.00097  -0.00409   0.00956  -0.01918
 123       10PX        -0.00676   0.00382  -0.00459   0.00083   0.00172
 124       10PY         0.00350   0.00843  -0.02821   0.01787  -0.00384
 125       10PZ         0.00099  -0.00254  -0.00639   0.02449  -0.04588
 126       11PX        -0.00676   0.00178  -0.00092   0.00334  -0.00334
 127       11PY        -0.00131   0.00533  -0.00963   0.00665  -0.00767
 128       11PZ        -0.00081   0.00327  -0.00674   0.01010  -0.01203
                          21        22        23        24        25
  21       11PZ         0.00796
  22 2   H  1S          0.00001   0.07068
  23        2S         -0.00009   0.13893   0.27933
  24        3S          0.00444   0.05138   0.10243   0.05168
  25        4PX        -0.00003  -0.00552  -0.01109  -0.00408   0.00050
  26        4PY        -0.00024   0.01538   0.03105   0.01147  -0.00124
  27        4PZ         0.00009  -0.00013  -0.00019  -0.00004   0.00001
  28 3   H  1S         -0.01100  -0.00991  -0.02679  -0.01536   0.00167
  29        2S         -0.02123  -0.02509  -0.06376  -0.03556   0.00414
  30        3S         -0.00353  -0.01792  -0.04262  -0.01896   0.00292
  31        4PX         0.00081   0.00175   0.00449   0.00231  -0.00022
  32        4PY         0.00104  -0.00002   0.00087   0.00101  -0.00013
  33        4PZ        -0.00205  -0.00227  -0.00588  -0.00331   0.00040
  34 4   H  1S          0.00007  -0.00991  -0.02679  -0.01538  -0.00067
  35        2S         -0.00046  -0.02510  -0.06378  -0.03560  -0.00093
  36        3S          0.00241  -0.01792  -0.04264  -0.01900   0.00003
  37        4PX        -0.00019  -0.00243  -0.00671  -0.00396  -0.00016
  38        4PY        -0.00004  -0.00149  -0.00309  -0.00121   0.00014
  39        4PZ         0.00026   0.00029   0.00098   0.00052  -0.00004
  40 5   O  1S         -0.00445   0.00234   0.00909  -0.00176  -0.00057
  41        2S         -0.00720   0.00374   0.01491  -0.00247  -0.00092
  42        2PX        -0.00951   0.00045  -0.01186  -0.00428  -0.00027
  43        2PY        -0.00391   0.00784   0.02703   0.00948  -0.00236
  44        2PZ         0.00300   0.00528  -0.00369  -0.00146   0.00052
  45        3S          0.01962  -0.01075  -0.04586   0.00555   0.00274
  46        3PX        -0.01344   0.00082  -0.01617  -0.00611  -0.00039
  47        3PY        -0.00543   0.01073   0.03779   0.01298  -0.00334
  48        3PZ         0.00391   0.00756  -0.00449  -0.00242   0.00067
  49        4S          0.03589  -0.01806  -0.05688   0.00290   0.00301
  50        4PX        -0.01889   0.00112  -0.01682  -0.00649  -0.00062
  51        4PY        -0.00008   0.01499   0.04410   0.01589  -0.00385
  52        4PZ         0.00220   0.01052  -0.00185  -0.00133   0.00056
  53 6   P  1S         -0.00136   0.00049   0.00244  -0.00337  -0.00005
  54        2S         -0.00374   0.00135   0.00672  -0.00930  -0.00012
  55        3S          0.00758  -0.00295  -0.01423   0.01884   0.00028
  56        4S          0.01393  -0.00585  -0.02720   0.03419   0.00063
  57        5S         -0.02056   0.01178   0.05059  -0.05217  -0.00153
  58        6S         -0.02049   0.01554   0.04448  -0.03694  -0.00092
  59        7PX        -0.00086  -0.00060  -0.00078  -0.00257   0.00019
  60        7PY        -0.00133   0.00238   0.00843   0.00700  -0.00052
  61        7PZ        -0.00136   0.00039   0.00356  -0.00019  -0.00029
  62        8PX        -0.00149  -0.00101  -0.00140  -0.00453   0.00034
  63        8PY        -0.00201   0.00415   0.01459   0.01187  -0.00091
  64        8PZ        -0.00237   0.00072   0.00608  -0.00058  -0.00049
  65        9PX         0.00191   0.00125   0.00230   0.00593  -0.00042
  66        9PY         0.00139  -0.00577  -0.01921  -0.01405   0.00124
  67        9PZ         0.00262  -0.00128  -0.00724   0.00163   0.00053
  68       10PX         0.00385   0.00315   0.00074   0.01180  -0.00070
  69       10PY         0.01522  -0.01272  -0.04359  -0.04234   0.00248
  70       10PZ         0.00585  -0.00214  -0.02376  -0.00508   0.00194
  71       11PX         0.00121  -0.00238  -0.00713  -0.00157   0.00020
  72       11PY         0.01592   0.00276   0.00492   0.00655  -0.00076
  73       11PZ        -0.00366  -0.00226  -0.00870   0.00112   0.00042
  74 7   O  1S         -0.00060  -0.00012  -0.00020  -0.00595   0.00009
  75        2S         -0.00093  -0.00022  -0.00037  -0.00963   0.00016
  76        2PX         0.00193  -0.00035   0.00030   0.00192   0.00014
  77        2PY         0.01903   0.00504   0.01184   0.00698  -0.00098
  78        2PZ        -0.01430   0.00232   0.00729   0.00698  -0.00060
  79        3S          0.00261   0.00101   0.00127   0.02787  -0.00049
  80        3PX         0.00266  -0.00056   0.00038   0.00289   0.00016
  81        3PY         0.02677   0.00711   0.01646   0.00975  -0.00139
  82        3PZ        -0.01979   0.00315   0.01009   0.01010  -0.00085
  83        4S          0.00236  -0.00052   0.00536   0.04026  -0.00095
  84        4PX         0.00319  -0.00018  -0.00054  -0.00151   0.00042
  85        4PY         0.02815   0.00791   0.01709   0.00693  -0.00129
  86        4PZ        -0.02199   0.00423   0.00890   0.00124  -0.00064
  87 8   Cl 1S          0.00005   0.00005   0.00036  -0.00030   0.00000
  88        2S          0.00015   0.00015   0.00101  -0.00085   0.00001
  89        3S         -0.00051  -0.00030  -0.00179   0.00109  -0.00003
  90        4S         -0.00056  -0.00085  -0.00384   0.00188  -0.00007
  91        5S          0.00112   0.00229   0.00673   0.00094   0.00011
  92        6S          0.00644  -0.00047  -0.00405   0.00880   0.00017
  93        7PX         0.00481   0.00127   0.00170   0.01224  -0.00032
  94        7PY        -0.00221   0.00108   0.00313   0.00962   0.00022
  95        7PZ        -0.00173   0.00215   0.00344   0.01175  -0.00007
  96        8PX        -0.00181  -0.00049  -0.00070  -0.00463   0.00012
  97        8PY         0.00085  -0.00039  -0.00113  -0.00364  -0.00009
  98        8PZ         0.00065  -0.00081  -0.00128  -0.00447   0.00002
  99        9PX        -0.00513  -0.00142  -0.00199  -0.01276   0.00036
 100        9PY         0.00238  -0.00149  -0.00399  -0.01113  -0.00025
 101        9PZ         0.00201  -0.00262  -0.00418  -0.01354   0.00007
 102       10PX        -0.01185  -0.00339  -0.00596  -0.03099   0.00089
 103       10PY         0.00608  -0.00232  -0.00683  -0.02484  -0.00061
 104       10PZ         0.00428  -0.00557  -0.00864  -0.03091   0.00018
 105       11PX        -0.00223  -0.00318  -0.00830  -0.00808   0.00041
 106       11PY        -0.00067  -0.00355  -0.00875  -0.01380  -0.00020
 107       11PZ         0.00308  -0.00352  -0.00446  -0.01651  -0.00004
 108 9   Cl 1S         -0.00072   0.00005   0.00036  -0.00031  -0.00002
 109        2S         -0.00207   0.00015   0.00101  -0.00085  -0.00005
 110        3S          0.00388  -0.00030  -0.00179   0.00111   0.00010
 111        4S          0.00652  -0.00085  -0.00384   0.00191   0.00024
 112        5S         -0.00651   0.00229   0.00672   0.00091  -0.00051
 113        6S         -0.00969  -0.00045  -0.00399   0.00872   0.00024
 114        7PX        -0.00253   0.00082   0.00077   0.00097  -0.00011
 115        7PY         0.00130   0.00092   0.00278   0.00564  -0.00028
 116        7PZ         0.00892   0.00242   0.00398   0.01866  -0.00048
 117        8PX         0.00098  -0.00031  -0.00028  -0.00039   0.00004
 118        8PY        -0.00048  -0.00032  -0.00098  -0.00214   0.00010
 119        8PZ        -0.00344  -0.00091  -0.00152  -0.00707   0.00019
 120        9PX         0.00254  -0.00096  -0.00086  -0.00155   0.00013
 121        9PY        -0.00205  -0.00132  -0.00357  -0.00716   0.00035
 122        9PZ        -0.00954  -0.00289  -0.00484  -0.02041   0.00053
 123       10PX         0.00694  -0.00233  -0.00185  -0.00316   0.00024
 124       10PY        -0.00322  -0.00195  -0.00536  -0.01501   0.00056
 125       10PZ        -0.02510  -0.00621  -0.01108  -0.04797   0.00137
 126       11PX         0.00365  -0.00013   0.00327  -0.00431  -0.00006
 127       11PY        -0.00371  -0.00246  -0.00463  -0.01241   0.00052
 128       11PZ        -0.01049  -0.00536  -0.01146  -0.01886   0.00096
                          26        27        28        29        30
  26        4PY         0.00351
  27        4PZ        -0.00003   0.00005
  28 3   H  1S         -0.00193  -0.00125   0.07138
  29        2S         -0.00528  -0.00250   0.13961   0.27981
  30        3S         -0.00427  -0.00124   0.06296   0.13156   0.07362
  31        4PX         0.00045   0.00011  -0.00576  -0.01169  -0.00555
  32        4PY        -0.00000   0.00016  -0.00764  -0.01544  -0.00743
  33        4PZ        -0.00046  -0.00024   0.01399   0.02797   0.01315
  34 4   H  1S         -0.00275   0.00018  -0.01044  -0.02963  -0.02698
  35        2S         -0.00708   0.00061  -0.02962  -0.07518  -0.06073
  36        3S         -0.00529   0.00053  -0.02698  -0.06071  -0.03719
  37        4PX        -0.00075   0.00007  -0.00315  -0.00847  -0.00727
  38        4PY        -0.00033  -0.00000   0.00064   0.00152   0.00091
  39        4PZ         0.00012   0.00003  -0.00132  -0.00268  -0.00126
  40 5   O  1S          0.00123  -0.00022   0.00103   0.00121  -0.00703
  41        2S          0.00209  -0.00029   0.00155   0.00203  -0.01128
  42        2PX        -0.00255   0.00041  -0.00151  -0.01335  -0.01924
  43        2PY         0.00328  -0.00115  -0.00023  -0.00959  -0.01328
  44        2PZ        -0.00145  -0.00142   0.01549   0.05022   0.03773
  45        3S         -0.00669   0.00060  -0.00315  -0.00288   0.03340
  46        3PX        -0.00352   0.00057  -0.00159  -0.01762  -0.02663
  47        3PY         0.00453  -0.00169  -0.00043  -0.01316  -0.01774
  48        3PZ        -0.00198  -0.00203   0.02140   0.07020   0.05249
  49        4S         -0.00840   0.00006  -0.01228  -0.02425   0.03804
  50        4PX        -0.00360   0.00071  -0.00280  -0.02184  -0.03601
  51        4PY         0.00515  -0.00197   0.00115  -0.01508  -0.01642
  52        4PZ        -0.00154  -0.00231   0.03156   0.09103   0.06074
  53 6   P  1S          0.00021   0.00005  -0.00043   0.00014  -0.00085
  54        2S          0.00059   0.00014  -0.00121   0.00042  -0.00235
  55        3S         -0.00128  -0.00027   0.00255  -0.00056   0.00501
  56        4S         -0.00252  -0.00042   0.00482  -0.00032   0.00932
  57        5S          0.00506   0.00042  -0.00912  -0.00471  -0.01674
  58        6S          0.00426   0.00096  -0.00980  -0.00599  -0.01716
  59        7PX        -0.00009  -0.00004   0.00048   0.00175   0.00099
  60        7PY         0.00125  -0.00024  -0.00031  -0.00199  -0.00261
  61        7PZ         0.00046  -0.00002  -0.00151  -0.00415  -0.00394
  62        8PX        -0.00017  -0.00007   0.00076   0.00291   0.00169
  63        8PY         0.00214  -0.00043  -0.00056  -0.00349  -0.00412
  64        8PZ         0.00077  -0.00004  -0.00256  -0.00691  -0.00646
  65        9PX         0.00033   0.00001  -0.00068  -0.00290  -0.00205
  66        9PY        -0.00268   0.00066   0.00098   0.00515   0.00396
  67        9PZ        -0.00081   0.00009   0.00299   0.00737   0.00593
  68       10PX        -0.00004   0.00050  -0.00428  -0.01085  -0.00523
  69       10PY        -0.00700   0.00059   0.00131   0.00822   0.02390
  70       10PZ        -0.00349   0.00013   0.01007   0.03048   0.02922
  71       11PX        -0.00087   0.00036  -0.00117  -0.00556   0.00089
  72       11PY         0.00031  -0.00088   0.00245  -0.00321   0.00862
  73       11PZ        -0.00105  -0.00024   0.00419   0.01226   0.00590
  74 7   O  1S         -0.00018   0.00004   0.00011   0.00183   0.00182
  75        2S         -0.00032   0.00007   0.00018   0.00296   0.00300
  76        2PX         0.00037   0.00017   0.00052   0.00304   0.00926
  77        2PY         0.00102  -0.00110   0.00187  -0.00288   0.01169
  78        2PZ         0.00110  -0.00019  -0.00124  -0.00342  -0.01348
  79        3S          0.00092  -0.00027  -0.00046  -0.00822  -0.00790
  80        3PX         0.00052   0.00025   0.00064   0.00363   0.01244
  81        3PY         0.00139  -0.00157   0.00276  -0.00398   0.01655
  82        3PZ         0.00154  -0.00030  -0.00154  -0.00444  -0.01829
  83        4S          0.00225  -0.00024  -0.00226  -0.01755  -0.01950
  84        4PX         0.00023   0.00022   0.00167   0.00896   0.01860
  85        4PY         0.00128  -0.00157   0.00293  -0.00162   0.02042
  86        4PZ         0.00089  -0.00017  -0.00158  -0.00133  -0.01560
  87 8   Cl 1S          0.00003  -0.00001   0.00006  -0.00008   0.00062
  88        2S          0.00007  -0.00002   0.00016  -0.00026   0.00178
  89        3S         -0.00013   0.00004  -0.00026   0.00067  -0.00351
  90        4S         -0.00030   0.00009  -0.00088  -0.00015  -0.00663
  91        5S          0.00061  -0.00022   0.00243   0.00358   0.01067
  92        6S         -0.00056   0.00004  -0.00159  -0.00954   0.00788
  93        7PX         0.00042  -0.00017   0.00058  -0.00030   0.00047
  94        7PY         0.00073   0.00012   0.00024   0.00090  -0.00423
  95        7PZ         0.00061  -0.00017  -0.00022  -0.00017  -0.00478
  96        8PX        -0.00017   0.00007  -0.00024   0.00004  -0.00018
  97        8PY        -0.00027  -0.00005  -0.00008  -0.00031   0.00163
  98        8PZ        -0.00023   0.00007   0.00008   0.00007   0.00181
  99        9PX        -0.00046   0.00015  -0.00048   0.00076  -0.00041
 100        9PY        -0.00087  -0.00013  -0.00040  -0.00141   0.00440
 101        9PZ        -0.00072   0.00020   0.00023  -0.00003   0.00531
 102       10PX        -0.00134   0.00054  -0.00192  -0.00110  -0.00090
 103       10PY        -0.00174  -0.00033  -0.00059  -0.00193   0.01155
 104       10PZ        -0.00154   0.00046   0.00033   0.00032   0.01238
 105       11PX        -0.00115   0.00018  -0.00186  -0.00396  -0.00062
 106       11PY        -0.00144  -0.00000  -0.00037  -0.00170   0.00176
 107       11PZ        -0.00075   0.00026   0.00037  -0.00182   0.00449
 108 9   Cl 1S          0.00002   0.00001  -0.00034  -0.00004  -0.00091
 109        2S          0.00005   0.00002  -0.00095  -0.00007  -0.00260
 110        3S         -0.00008  -0.00004   0.00178   0.00007   0.00476
 111        4S         -0.00019  -0.00010   0.00422   0.00246   0.00891
 112        5S          0.00039   0.00016  -0.00883  -0.01101  -0.01288
 113        6S         -0.00053  -0.00001   0.00013   0.01055  -0.00228
 114        7PX        -0.00001  -0.00011  -0.00030  -0.00026  -0.00263
 115        7PY         0.00037   0.00049  -0.00395  -0.00744  -0.00852
 116        7PZ         0.00077  -0.00003  -0.00289  -0.01203  -0.00463
 117        8PX         0.00001   0.00004   0.00011   0.00005   0.00098
 118        8PY        -0.00013  -0.00019   0.00145   0.00267   0.00314
 119        8PZ        -0.00029   0.00001   0.00110   0.00464   0.00178
 120        9PX         0.00000   0.00012   0.00039   0.00073   0.00297
 121        9PY        -0.00046  -0.00056   0.00513   0.01012   0.01003
 122        9PZ        -0.00089   0.00001   0.00358   0.01359   0.00546
 123       10PX         0.00005   0.00028   0.00083  -0.00027   0.00641
 124       10PY        -0.00075  -0.00128   0.00992   0.01675   0.01966
 125       10PZ        -0.00210   0.00012   0.00791   0.03420   0.01260
 126       11PX         0.00046   0.00014  -0.00157  -0.00346   0.00066
 127       11PY        -0.00055  -0.00056   0.00489   0.01147   0.01140
 128       11PZ        -0.00147  -0.00015   0.00833   0.02476   0.01218
                          31        32        33        34        35
  31        4PX         0.00056
  32        4PY         0.00065   0.00093
  33        4PZ        -0.00116  -0.00155   0.00281
  34 4   H  1S         -0.00033   0.00164  -0.00305   0.07138
  35        2S         -0.00008   0.00449  -0.00782   0.13960   0.27979
  36        3S          0.00097   0.00382  -0.00630   0.06295   0.13153
  37        4PX        -0.00003   0.00051  -0.00088   0.01694   0.03401
  38        4PY        -0.00009  -0.00007   0.00014   0.00038   0.00071
  39        4PZ         0.00014   0.00014  -0.00025   0.00009  -0.00002
  40 5   O  1S          0.00008  -0.00029  -0.00002   0.00103   0.00122
  41        2S          0.00016  -0.00043   0.00007   0.00155   0.00205
  42        2PX        -0.00010   0.00198  -0.00191   0.01327   0.04997
  43        2PY         0.00094   0.00071  -0.00129   0.00498   0.01274
  44        2PZ        -0.00414  -0.00435   0.00446   0.00644   0.01139
  45        3S         -0.00087   0.00095  -0.00029  -0.00317  -0.00298
  46        3PX        -0.00018   0.00269  -0.00257   0.01821   0.06938
  47        3PY         0.00129   0.00099  -0.00183   0.00656   0.01753
  48        3PZ        -0.00582  -0.00612   0.00622   0.00927   0.01684
  49        4S          0.00023   0.00183  -0.00238  -0.01226  -0.02425
  50        4PX        -0.00017   0.00323  -0.00311   0.02617   0.08871
  51        4PY         0.00130   0.00087  -0.00197   0.01138   0.02393
  52        4PZ        -0.00703  -0.00750   0.00819   0.01380   0.02323
  53 6   P  1S         -0.00000   0.00008  -0.00001  -0.00043   0.00015
  54        2S         -0.00001   0.00023  -0.00003  -0.00120   0.00043
  55        3S         -0.00002  -0.00048   0.00007   0.00253  -0.00060
  56        4S         -0.00016  -0.00084   0.00026   0.00479  -0.00040
  57        5S          0.00091   0.00136  -0.00097  -0.00904  -0.00451
  58        6S          0.00046   0.00086  -0.00095  -0.00982  -0.00606
  59        7PX        -0.00008  -0.00017   0.00012  -0.00124  -0.00306
  60        7PY         0.00035   0.00009  -0.00018  -0.00091  -0.00365
  61        7PZ         0.00028   0.00041  -0.00052  -0.00045  -0.00121
  62        8PX        -0.00014  -0.00029   0.00020  -0.00209  -0.00500
  63        8PY         0.00060   0.00014  -0.00032  -0.00155  -0.00623
  64        8PZ         0.00046   0.00069  -0.00087  -0.00081  -0.00206
  65        9PX         0.00014   0.00030  -0.00018   0.00221   0.00459
  66        9PY        -0.00076  -0.00008   0.00053   0.00197   0.00771
  67        9PZ        -0.00048  -0.00056   0.00102   0.00121   0.00275
  68       10PX         0.00026   0.00087  -0.00077   0.00905   0.02471
  69       10PY        -0.00194  -0.00051   0.00069   0.00599   0.02067
  70       10PZ        -0.00226  -0.00256   0.00381   0.00192   0.00872
  71       11PX         0.00016   0.00054  -0.00053   0.00270   0.01343
  72       11PY         0.00009  -0.00008  -0.00042   0.00382   0.00349
  73       11PZ        -0.00083  -0.00101   0.00119   0.00186   0.00069
  74 7   O  1S         -0.00015   0.00002   0.00023   0.00011   0.00182
  75        2S         -0.00026   0.00004   0.00037   0.00018   0.00295
  76        2PX        -0.00019  -0.00052   0.00030  -0.00207  -0.00247
  77        2PY         0.00012  -0.00030  -0.00056   0.00097  -0.00479
  78        2PZ         0.00037   0.00016  -0.00058   0.00035  -0.00004
  79        3S          0.00074  -0.00024  -0.00108  -0.00046  -0.00819
  80        3PX        -0.00022  -0.00064   0.00037  -0.00276  -0.00299
  81        3PY         0.00014  -0.00042  -0.00080   0.00157  -0.00626
  82        3PZ         0.00051   0.00018  -0.00078   0.00055  -0.00038
  83        4S          0.00176   0.00077  -0.00193  -0.00227  -0.01752
  84        4PX        -0.00068  -0.00120   0.00088  -0.00323  -0.00338
  85        4PY        -0.00005  -0.00068  -0.00051   0.00122  -0.00591
  86        4PZ         0.00006  -0.00005  -0.00050   0.00144   0.00621
  87 8   Cl 1S         -0.00000  -0.00001  -0.00001  -0.00034  -0.00004
  88        2S         -0.00000  -0.00002  -0.00004  -0.00095  -0.00007
  89        3S         -0.00001   0.00005   0.00008   0.00178   0.00007
  90        4S         -0.00000   0.00018   0.00001   0.00421   0.00245
  91        5S         -0.00001  -0.00052   0.00035  -0.00883  -0.01100
  92        6S          0.00041   0.00027  -0.00085   0.00017   0.01061
  93        7PX         0.00007  -0.00009   0.00021  -0.00041  -0.00622
  94        7PY         0.00031  -0.00018  -0.00009  -0.00399  -0.00955
  95        7PZ         0.00003  -0.00016  -0.00033  -0.00282  -0.00837
  96        8PX        -0.00002   0.00004  -0.00009   0.00018   0.00251
  97        8PY        -0.00012   0.00007   0.00004   0.00148   0.00355
  98        8PZ        -0.00001   0.00006   0.00013   0.00105   0.00313
  99        9PX        -0.00010   0.00005  -0.00018   0.00038   0.00607
 100        9PY        -0.00034   0.00024   0.00006   0.00513   0.01202
 101        9PZ        -0.00003   0.00021   0.00035   0.00358   0.01031
 102       10PX        -0.00008   0.00037  -0.00070   0.00155   0.02013
 103       10PY        -0.00083   0.00040   0.00027   0.01017   0.02394
 104       10PZ        -0.00010   0.00043   0.00084   0.00746   0.02172
 105       11PX        -0.00002   0.00027  -0.00061   0.00503   0.01596
 106       11PY        -0.00041   0.00052   0.00010   0.00720   0.01831
 107       11PZ         0.00016   0.00054   0.00027   0.00428   0.01288
 108 9   Cl 1S          0.00002   0.00011  -0.00004   0.00006  -0.00008
 109        2S          0.00007   0.00031  -0.00011   0.00016  -0.00026
 110        3S         -0.00013  -0.00061   0.00019  -0.00027   0.00066
 111        4S         -0.00029  -0.00126   0.00051  -0.00089  -0.00016
 112        5S          0.00067   0.00222  -0.00122   0.00244   0.00360
 113        6S         -0.00040   0.00056   0.00115  -0.00157  -0.00950
 114        7PX        -0.00047   0.00015  -0.00032  -0.00048  -0.00044
 115        7PY         0.00033   0.00139  -0.00058  -0.00012   0.00088
 116        7PZ         0.00066   0.00116  -0.00090   0.00045  -0.00003
 117        8PX         0.00018  -0.00005   0.00012   0.00018   0.00018
 118        8PY        -0.00012  -0.00052   0.00020   0.00006  -0.00028
 119        8PZ        -0.00025  -0.00045   0.00035  -0.00019  -0.00004
 120        9PX         0.00050  -0.00020   0.00040   0.00053   0.00036
 121        9PY        -0.00044  -0.00165   0.00080  -0.00006  -0.00159
 122        9PZ        -0.00072  -0.00132   0.00102  -0.00041   0.00015
 123       10PX         0.00129  -0.00031   0.00071   0.00117   0.00148
 124       10PY        -0.00065  -0.00335   0.00117   0.00046  -0.00111
 125       10PZ        -0.00189  -0.00320   0.00268  -0.00160  -0.00140
 126       11PX         0.00088   0.00003  -0.00001   0.00108   0.00062
 127       11PY        -0.00054  -0.00200   0.00082   0.00063  -0.00018
 128       11PZ        -0.00122  -0.00228   0.00219  -0.00147  -0.00472
                          36        37        38        39        40
  36        3S          0.07360
  37        4PX         0.01609   0.00417
  38        4PY         0.00022   0.00006   0.00006
  39        4PZ        -0.00010  -0.00003  -0.00000   0.00007
  40 5   O  1S         -0.00701   0.00010  -0.00028  -0.00002   0.64023
  41        2S         -0.01124   0.00021  -0.00041   0.00004   0.56998
  42        2PX         0.04348   0.00740  -0.00059  -0.00197  -0.00598
  43        2PY         0.00877   0.00177  -0.00084  -0.00020   0.00478
  44        2PZ        -0.00062   0.00103   0.00069  -0.00149  -0.00704
  45        3S          0.03330  -0.00041   0.00112  -0.00058  -0.13444
  46        3PX         0.06009   0.01031  -0.00084  -0.00277  -0.00420
  47        3PY         0.01274   0.00241  -0.00117  -0.00032   0.00258
  48        3PZ        -0.00054   0.00155   0.00093  -0.00211  -0.00540
  49        4S          0.03797  -0.00289   0.00074  -0.00047  -0.15650
  50        4PX         0.06936   0.01276  -0.00088  -0.00302  -0.00159
  51        4PY         0.02064   0.00345  -0.00143  -0.00047   0.00024
  52        4PZ        -0.00371   0.00229   0.00111  -0.00243  -0.00247
  53 6   P  1S         -0.00085  -0.00005   0.00007   0.00002   0.00016
  54        2S         -0.00234  -0.00013   0.00019   0.00005   0.00050
  55        3S          0.00500   0.00029  -0.00038  -0.00012  -0.00142
  56        4S          0.00929   0.00065  -0.00055  -0.00024  -0.00246
  57        5S         -0.01665  -0.00171   0.00042   0.00066   0.00539
  58        6S         -0.01717  -0.00134   0.00023   0.00015   0.02866
  59        7PX        -0.00232  -0.00051   0.00014  -0.00002   0.00115
  60        7PY        -0.00377  -0.00055  -0.00007   0.00024  -0.00240
  61        7PZ        -0.00192  -0.00027  -0.00007   0.00006   0.00050
  62        8PX        -0.00390  -0.00084   0.00024  -0.00003   0.00210
  63        8PY        -0.00608  -0.00094  -0.00013   0.00040  -0.00479
  64        8PZ        -0.00304  -0.00046  -0.00012   0.00010   0.00068
  65        9PX         0.00366   0.00080  -0.00021   0.00011  -0.00224
  66        9PY         0.00595   0.00111   0.00033  -0.00038   0.00699
  67        9PZ         0.00243   0.00056   0.00027  -0.00004   0.00035
  68       10PX         0.01437   0.00385  -0.00042   0.00007  -0.00127
  69       10PY         0.03077   0.00318   0.00042  -0.00139  -0.00850
  70       10PZ         0.01726   0.00203   0.00054  -0.00066  -0.00696
  71       11PX         0.00047   0.00182  -0.00005  -0.00024  -0.00122
  72       11PY         0.00848   0.00057  -0.00033  -0.00026  -0.00949
  73       11PZ         0.00618   0.00016   0.00006  -0.00022  -0.00747
  74 7   O  1S          0.00182   0.00023   0.00015  -0.00001   0.00005
  75        2S          0.00300   0.00038   0.00026  -0.00002   0.00012
  76        2PX        -0.01963  -0.00057   0.00013   0.00023   0.00151
  77        2PY         0.00153  -0.00075  -0.00033  -0.00014  -0.00592
  78        2PZ         0.00417   0.00001  -0.00045  -0.00018  -0.00093
  79        3S         -0.00791  -0.00101  -0.00086  -0.00001  -0.00127
  80        3PX        -0.02692  -0.00072   0.00015   0.00032   0.00203
  81        3PY         0.00271  -0.00098  -0.00048  -0.00024  -0.00886
  82        3PZ         0.00576  -0.00003  -0.00062  -0.00023  -0.00177
  83        4S         -0.01952  -0.00252  -0.00075   0.00069   0.00309
  84        4PX        -0.02863  -0.00081   0.00030   0.00021   0.00156
  85        4PY         0.00383  -0.00089  -0.00044  -0.00026  -0.00841
  86        4PZ         0.01325   0.00101  -0.00066  -0.00063  -0.00228
  87 8   Cl 1S         -0.00091  -0.00009   0.00007   0.00003  -0.00008
  88        2S         -0.00259  -0.00026   0.00020   0.00009  -0.00024
  89        3S          0.00474   0.00048  -0.00040  -0.00018   0.00060
  90        4S          0.00888   0.00110  -0.00076  -0.00034   0.00055
  91        5S         -0.01282  -0.00226   0.00119   0.00057  -0.00010
  92        6S         -0.00224   0.00082   0.00099   0.00040  -0.00735
  93        7PX         0.00111  -0.00058  -0.00015   0.00033  -0.00047
  94        7PY        -0.00724  -0.00138   0.00069   0.00066   0.00158
  95        7PZ        -0.00691  -0.00125   0.00064  -0.00009  -0.00045
  96        8PX        -0.00035   0.00024   0.00006  -0.00013   0.00011
  97        8PY         0.00269   0.00051  -0.00026  -0.00025  -0.00058
  98        8PZ         0.00259   0.00047  -0.00024   0.00004   0.00016
  99        9PX        -0.00126   0.00055   0.00015  -0.00036   0.00056
 100        9PY         0.00859   0.00169  -0.00078  -0.00074  -0.00184
 101        9PZ         0.00804   0.00151  -0.00073   0.00010   0.00059
 102       10PX        -0.00109   0.00214   0.00040  -0.00094  -0.00029
 103       10PY         0.01710   0.00341  -0.00177  -0.00169  -0.00358
 104       10PZ         0.01720   0.00319  -0.00165   0.00026   0.00095
 105       11PX         0.00434   0.00193   0.00011  -0.00041  -0.00307
 106       11PY         0.01274   0.00258  -0.00100  -0.00100  -0.00113
 107       11PZ         0.00992   0.00190  -0.00099   0.00014   0.00253
 108 9   Cl 1S          0.00062  -0.00001  -0.00001  -0.00001  -0.00008
 109        2S          0.00178  -0.00002  -0.00003  -0.00003  -0.00024
 110        3S         -0.00350   0.00004   0.00007   0.00005   0.00060
 111        4S         -0.00662  -0.00007   0.00015   0.00006   0.00055
 112        5S          0.01066   0.00053  -0.00032   0.00001  -0.00010
 113        6S          0.00792  -0.00096  -0.00021  -0.00002  -0.00735
 114        7PX        -0.00206  -0.00019  -0.00004  -0.00027  -0.00095
 115        7PY        -0.00508  -0.00022  -0.00032   0.00002   0.00141
 116        7PZ        -0.00319   0.00003  -0.00026   0.00006  -0.00015
 117        8PX         0.00077   0.00007   0.00001   0.00010   0.00037
 118        8PY         0.00195   0.00009   0.00012  -0.00001  -0.00049
 119        8PZ         0.00122  -0.00002   0.00010  -0.00002   0.00001
 120        9PX         0.00240   0.00018   0.00005   0.00031   0.00116
 121        9PY         0.00533   0.00016   0.00038  -0.00002  -0.00163
 122        9PZ         0.00355  -0.00001   0.00029  -0.00008   0.00023
 123       10PX         0.00496   0.00052   0.00010   0.00068   0.00256
 124       10PY         0.01349   0.00073   0.00079  -0.00008  -0.00258
 125       10PZ         0.00870  -0.00025   0.00068  -0.00014  -0.00078
 126       11PX         0.00304   0.00015   0.00005   0.00049   0.00362
 127       11PY         0.00296   0.00023   0.00065   0.00012   0.00122
 128       11PZ         0.00219  -0.00057   0.00047  -0.00003  -0.00156
                          41        42        43        44        45
  41        2S          0.52473
  42        2PX        -0.00929   0.16068
  43        2PY         0.00733   0.01434   0.11841
  44        2PZ        -0.01099  -0.01197  -0.00792   0.14889
  45        3S         -0.22592   0.03386  -0.02572   0.04063   0.68325
  46        3PX        -0.00762   0.22617   0.01944  -0.01686   0.03640
  47        3PY         0.00472   0.02022   0.17385  -0.00682  -0.02375
  48        3PZ        -0.00976  -0.01641  -0.00810   0.21178   0.04593
  49        4S         -0.24497   0.01251  -0.00765   0.01608   0.67374
  50        4PX        -0.00386   0.25076   0.02252  -0.01638   0.02974
  51        4PY         0.00157   0.02048   0.17608  -0.01972  -0.02077
  52        4PZ        -0.00541  -0.01755  -0.01636   0.23052   0.03673
  53 6   P  1S          0.00029  -0.00170   0.00414  -0.00040  -0.00124
  54        2S          0.00086  -0.00470   0.01135  -0.00117  -0.00363
  55        3S         -0.00242   0.01011  -0.02364   0.00296   0.00948
  56        4S         -0.00424   0.01817  -0.04637   0.00309   0.01667
  57        5S          0.00972  -0.03645   0.09077  -0.00750  -0.03867
  58        6S          0.04350   0.00207  -0.00185   0.00237  -0.11356
  59        7PX         0.00182  -0.00397  -0.00928   0.00123  -0.00485
  60        7PY        -0.00377  -0.01161   0.02471  -0.00021   0.00978
  61        7PZ         0.00081  -0.00011   0.00360  -0.00610  -0.00233
  62        8PX         0.00333  -0.00604  -0.01650   0.00211  -0.00886
  63        8PY        -0.00761  -0.02008   0.04406  -0.00000   0.02000
  64        8PZ         0.00108   0.00005   0.00586  -0.00967  -0.00301
  65        9PX        -0.00352   0.00154   0.02236  -0.00320   0.00835
  66        9PY         0.01113   0.02476  -0.06074  -0.00091  -0.02847
  67        9PZ         0.00063  -0.00182  -0.00484   0.00560  -0.00269
  68       10PX        -0.00227   0.03585   0.03056  -0.00089   0.00897
  69       10PY        -0.01332   0.04954  -0.08996   0.00226   0.03468
  70       10PZ        -0.01137   0.01002  -0.02878   0.04697   0.03461
  71       11PX        -0.00240   0.03632  -0.00111  -0.00989   0.01167
  72       11PY        -0.01408   0.00232   0.03037  -0.00288   0.03020
  73       11PZ        -0.01203  -0.00789  -0.00850   0.02416   0.03651
  74 7   O  1S          0.00008   0.00081   0.00001   0.00133  -0.00030
  75        2S          0.00021   0.00118   0.00005   0.00196  -0.00093
  76        2PX         0.00226  -0.00882  -0.00667   0.00725  -0.00208
  77        2PY        -0.00934  -0.00750   0.02392   0.01044   0.02091
  78        2PZ        -0.00167   0.00677   0.01179   0.00228   0.00862
  79        3S         -0.00232  -0.00078  -0.00074  -0.00170   0.00891
  80        3PX         0.00300  -0.01075  -0.00798   0.00857  -0.00240
  81        3PY        -0.01386  -0.00938   0.03346   0.01468   0.03103
  82        3PZ        -0.00306   0.00776   0.01698   0.00369   0.01392
  83        4S          0.00555  -0.02228   0.01034  -0.03053  -0.01849
  84        4PX         0.00223  -0.01518  -0.01616   0.02082   0.00048
  85        4PY        -0.01365  -0.00918   0.03302   0.02327   0.03235
  86        4PZ        -0.00419   0.02484   0.01183   0.01390   0.01939
  87 8   Cl 1S         -0.00013   0.00071  -0.00008  -0.00006   0.00048
  88        2S         -0.00039   0.00205  -0.00021  -0.00018   0.00142
  89        3S          0.00097  -0.00440   0.00037   0.00047  -0.00338
  90        4S          0.00103  -0.00719   0.00089   0.00031  -0.00463
  91        5S         -0.00055   0.00692  -0.00135   0.00069   0.00468
  92        6S         -0.01151   0.03829   0.00213  -0.00838   0.03563
  93        7PX        -0.00054  -0.01964   0.01159  -0.00233  -0.00236
  94        7PY         0.00238   0.01016  -0.00755   0.00083  -0.00265
  95        7PZ        -0.00078   0.00053  -0.00233   0.00589   0.00339
  96        8PX         0.00014   0.00792  -0.00440   0.00078   0.00102
  97        8PY        -0.00088  -0.00392   0.00287  -0.00026   0.00095
  98        8PZ         0.00029  -0.00028   0.00087  -0.00223  -0.00126
  99        9PX         0.00058   0.01924  -0.01293   0.00327   0.00274
 100        9PY        -0.00276  -0.01169   0.00897  -0.00132   0.00312
 101        9PZ         0.00101   0.00000   0.00288  -0.00696  -0.00416
 102       10PX        -0.00073   0.06628  -0.02926   0.00323   0.01253
 103       10PY        -0.00534  -0.03004   0.01935  -0.00025   0.00445
 104       10PZ         0.00170  -0.00353   0.00508  -0.01459  -0.00786
 105       11PX        -0.00495   0.02965  -0.01173   0.00334   0.01844
 106       11PY        -0.00193  -0.00542   0.01047  -0.00412   0.00219
 107       11PZ         0.00415   0.00387   0.00855  -0.01663  -0.01419
 108 9   Cl 1S         -0.00013  -0.00025  -0.00041   0.00053   0.00048
 109        2S         -0.00039  -0.00074  -0.00119   0.00153   0.00142
 110        3S          0.00097   0.00169   0.00251  -0.00325  -0.00337
 111        4S          0.00103   0.00225   0.00420  -0.00545  -0.00462
 112        5S         -0.00055  -0.00114  -0.00418   0.00560   0.00468
 113        6S         -0.01150  -0.02073  -0.01859   0.02768   0.03562
 114        7PX        -0.00157   0.00454  -0.00146   0.00381   0.00480
 115        7PY         0.00202   0.00265  -0.01775   0.01275  -0.00014
 116        7PZ        -0.00015   0.00250   0.01152  -0.00809  -0.00099
 117        8PX         0.00060  -0.00165   0.00063  -0.00160  -0.00182
 118        8PY        -0.00072  -0.00083   0.00691  -0.00503  -0.00004
 119        8PZ         0.00000  -0.00111  -0.00455   0.00330   0.00047
 120        9PX         0.00192  -0.00586   0.00078  -0.00317  -0.00578
 121        9PY        -0.00229  -0.00420   0.01950  -0.01352   0.00014
 122        9PZ         0.00019  -0.00207  -0.01161   0.00761   0.00105
 123       10PX         0.00414  -0.00909   0.00562  -0.01411  -0.01274
 124       10PY        -0.00364  -0.00027   0.05134  -0.04067  -0.00441
 125       10PZ        -0.00127  -0.01119  -0.03506   0.02877   0.00755
 126       11PX         0.00596  -0.01179   0.00337  -0.00816  -0.01880
 127       11PY         0.00190  -0.00997   0.01927  -0.01423  -0.01087
 128       11PZ        -0.00252  -0.01275  -0.01540   0.01604   0.00858
                          46        47        48        49        50
  46        3PX         0.31868
  47        3PY         0.02718   0.25582
  48        3PZ        -0.02291  -0.00518   0.30175
  49        4S          0.00633   0.00075   0.01080   0.77570
  50        4PX         0.35290   0.03143  -0.02190  -0.02243   0.39750
  51        4PY         0.02721   0.25752  -0.02433   0.04999   0.02467
  52        4PZ        -0.02431  -0.01742   0.32748  -0.00799  -0.02157
  53 6   P  1S         -0.00252   0.00671  -0.00027  -0.00452  -0.00212
  54        2S         -0.00697   0.01843  -0.00082  -0.01256  -0.00588
  55        3S          0.01493  -0.03822   0.00246   0.02767   0.01267
  56        4S          0.02680  -0.07415   0.00125   0.05283   0.02186
  57        5S         -0.05299   0.14142  -0.00545  -0.09396  -0.04550
  58        6S          0.00399   0.00061   0.00692  -0.18942   0.01924
  59        7PX        -0.00602  -0.01393   0.00159  -0.00236  -0.00323
  60        7PY        -0.01701   0.03648  -0.00003   0.00008  -0.01471
  61        7PZ        -0.00017   0.00500  -0.00930  -0.00383   0.00020
  62        8PX        -0.00919  -0.02475   0.00275  -0.00529  -0.00437
  63        8PY        -0.02947   0.06511   0.00043   0.00533  -0.02598
  64        8PZ         0.00003   0.00817  -0.01481  -0.00559   0.00064
  65        9PX         0.00281   0.03339  -0.00420   0.00872  -0.00315
  66        9PY         0.03638  -0.08999  -0.00201  -0.02435   0.03524
  67        9PZ        -0.00249  -0.00690   0.00907   0.00027  -0.00303
  68       10PX         0.05400   0.04649   0.00005  -0.02076   0.04124
  69       10PY         0.07133  -0.13213   0.00036   0.13689   0.04791
  70       10PZ         0.01433  -0.04027   0.07059   0.04471   0.01073
  71       11PX         0.05233  -0.00126  -0.01476  -0.01592   0.05483
  72       11PY         0.00319   0.04376  -0.00466   0.10626  -0.01093
  73       11PZ        -0.01217  -0.01193   0.03412   0.03508  -0.01088
  74 7   O  1S          0.00109   0.00022   0.00191  -0.00250   0.00120
  75        2S          0.00157   0.00032   0.00275  -0.00379   0.00175
  76        2PX        -0.01035  -0.00860   0.00820  -0.04567  -0.01498
  77        2PY        -0.00987   0.03460   0.01431   0.09944  -0.02680
  78        2PZ         0.00747   0.01638   0.00328  -0.01760   0.02254
  79        3S         -0.00076  -0.00135  -0.00202   0.01588  -0.00146
  80        3PX        -0.01224  -0.01011   0.00927  -0.06354  -0.01857
  81        3PY        -0.01232   0.04830   0.01995   0.14298  -0.03606
  82        3PZ         0.00800   0.02356   0.00521  -0.02182   0.02882
  83        4S         -0.03155   0.01290  -0.04425  -0.01967  -0.02825
  84        4PX        -0.01827  -0.02143   0.02653  -0.06134  -0.02645
  85        4PY        -0.01156   0.04842   0.03308   0.14417  -0.03742
  86        4PZ         0.03221   0.01690   0.02046  -0.01754   0.05328
  87 8   Cl 1S          0.00105  -0.00012  -0.00013   0.00079   0.00076
  88        2S          0.00305  -0.00033  -0.00040   0.00233   0.00219
  89        3S         -0.00649   0.00058   0.00097  -0.00502  -0.00481
  90        4S         -0.01047   0.00129   0.00088  -0.00617  -0.00830
  91        5S          0.00979  -0.00189   0.00054   0.00649   0.00761
  92        6S          0.05514   0.00317  -0.01313   0.02680   0.05101
  93        7PX        -0.02727   0.01633  -0.00319   0.02035  -0.03711
  94        7PY         0.01585  -0.01040   0.00190  -0.03903   0.02183
  95        7PZ         0.00008  -0.00395   0.00587  -0.00159   0.00380
  96        8PX         0.01103  -0.00620   0.00107  -0.00784   0.01478
  97        8PY        -0.00611   0.00396  -0.00064   0.01476  -0.00839
  98        8PZ        -0.00014   0.00148  -0.00223   0.00060  -0.00156
  99        9PX         0.02660  -0.01828   0.00445  -0.02051   0.03715
 100        9PY        -0.01826   0.01239  -0.00270   0.04397  -0.02483
 101        9PZ         0.00076   0.00481  -0.00702   0.00149  -0.00334
 102       10PX         0.09289  -0.04095   0.00440  -0.05465   0.11860
 103       10PY        -0.04628   0.02669  -0.00225   0.09850  -0.06224
 104       10PZ        -0.00331   0.00893  -0.01434   0.00386  -0.01300
 105       11PX         0.04171  -0.01660   0.00417  -0.00572   0.05041
 106       11PY        -0.01012   0.01429  -0.00663   0.03788  -0.01317
 107       11PZ         0.00651   0.01291  -0.01983  -0.00456   0.00170
 108 9   Cl 1S         -0.00041  -0.00063   0.00076   0.00078  -0.00024
 109        2S         -0.00120  -0.00182   0.00219   0.00232  -0.00072
 110        3S          0.00270   0.00381  -0.00464  -0.00502   0.00178
 111        4S          0.00364   0.00624  -0.00773  -0.00617   0.00204
 112        5S         -0.00198  -0.00601   0.00770   0.00648  -0.00028
 113        6S         -0.03077  -0.02700   0.03934   0.02680  -0.02650
 114        7PX         0.00525  -0.00263   0.00286   0.01017   0.00947
 115        7PY         0.00332  -0.02546   0.01865  -0.04260   0.01251
 116        7PZ         0.00274   0.01554  -0.01159   0.00463   0.00720
 117        8PX        -0.00189   0.00111  -0.00131  -0.00380  -0.00350
 118        8PY        -0.00101   0.00991  -0.00736   0.01618  -0.00449
 119        8PZ        -0.00127  -0.00615   0.00474  -0.00187  -0.00293
 120        9PX        -0.00695   0.00174  -0.00157  -0.01251  -0.01169
 121        9PY        -0.00545   0.02805  -0.01981   0.04676  -0.01578
 122        9PZ        -0.00201  -0.01559   0.01087  -0.00339  -0.00731
 123       10PX        -0.00979   0.00941  -0.01363  -0.02470  -0.02106
 124       10PY         0.00076   0.07355  -0.05932   0.10900  -0.02274
 125       10PZ        -0.01396  -0.04758   0.04147  -0.01445  -0.02397
 126       11PX        -0.01488   0.00559  -0.00778  -0.01955  -0.02204
 127       11PY        -0.01293   0.02805  -0.02120   0.03300  -0.02573
 128       11PZ        -0.01707  -0.02107   0.02304   0.00392  -0.02360
                          51        52        53        54        55
  51        4PY         0.28427
  52        4PZ        -0.03728   0.36256
  53 6   P  1S          0.00414  -0.00109   0.38230
  54        2S          0.01136  -0.00309   0.62254   1.04647
  55        3S         -0.02371   0.00710  -0.12378  -0.33628   0.59662
  56        4S         -0.04603   0.00931  -0.17180  -0.44663   0.75283
  57        5S          0.09583  -0.01939   0.03288   0.09050  -0.20029
  58        6S         -0.04213   0.00734   0.03072   0.08477  -0.17385
  59        7PX        -0.01095   0.00237  -0.00011  -0.00029   0.00068
  60        7PY         0.03079  -0.00148  -0.00036  -0.00097   0.00210
  61        7PZ         0.00468  -0.00550  -0.00039  -0.00103   0.00232
  62        8PX        -0.01997   0.00409  -0.00011  -0.00034   0.00110
  63        8PY         0.05614  -0.00227  -0.00040  -0.00115   0.00284
  64        8PZ         0.00757  -0.00849  -0.00041  -0.00122   0.00344
  65        9PX         0.03010  -0.00598   0.00068   0.00188  -0.00386
  66        9PY        -0.08470   0.00262   0.00038   0.00105  -0.00232
  67        9PZ        -0.00579   0.00281   0.00133   0.00368  -0.00766
  68       10PX         0.02376  -0.00315  -0.00183  -0.00502   0.01026
  69       10PY        -0.08089   0.00228   0.00249   0.00687  -0.01459
  70       10PZ        -0.03722   0.04765  -0.00157  -0.00427   0.00842
  71       11PX        -0.01360  -0.01245  -0.00203  -0.00565   0.01182
  72       11PY         0.07797  -0.00624  -0.00300  -0.00827   0.01685
  73       11PZ        -0.01060   0.03374  -0.00505  -0.01399   0.02901
  74 7   O  1S         -0.00088   0.00147   0.00035   0.00102  -0.00262
  75        2S         -0.00103   0.00228   0.00060   0.00173  -0.00444
  76        2PX        -0.03120   0.02000  -0.00219  -0.00602   0.01286
  77        2PY         0.06757   0.01692  -0.00282  -0.00774   0.01631
  78        2PZ         0.00969   0.00433  -0.00520  -0.01432   0.03044
  79        3S          0.00156  -0.00150  -0.00242  -0.00695   0.01704
  80        3PX        -0.04180   0.02551  -0.00338  -0.00934   0.01984
  81        3PY         0.09586   0.02416  -0.00444  -0.01221   0.02565
  82        3PZ         0.01475   0.00684  -0.00810  -0.02232   0.04725
  83        4S          0.01435  -0.03802  -0.00419  -0.01171   0.02643
  84        4PX        -0.05389   0.04380  -0.00243  -0.00672   0.01442
  85        4PY         0.09339   0.03392  -0.00317  -0.00871   0.01840
  86        4PZ         0.00692   0.01910  -0.00581  -0.01602   0.03421
  87 8   Cl 1S          0.00006   0.00006  -0.00010  -0.00029   0.00077
  88        2S          0.00021   0.00014  -0.00031  -0.00090   0.00235
  89        3S         -0.00042  -0.00004   0.00080   0.00234  -0.00578
  90        4S          0.00027  -0.00077   0.00080   0.00236  -0.00655
  91        5S         -0.00100   0.00223  -0.00106  -0.00309   0.00865
  92        6S         -0.00036  -0.01163  -0.00772  -0.02152   0.04628
  93        7PX         0.02467  -0.00502  -0.00300  -0.00820   0.01686
  94        7PY        -0.02980   0.00176   0.00016   0.00045  -0.00092
  95        7PZ        -0.00156   0.01896   0.00015   0.00045  -0.00116
  96        8PX        -0.00948   0.00174   0.00110   0.00303  -0.00627
  97        8PY         0.01132  -0.00057  -0.00006  -0.00015   0.00031
  98        8PZ         0.00056  -0.00720  -0.00005  -0.00014   0.00038
  99        9PX        -0.02650   0.00667   0.00296   0.00806  -0.01658
 100        9PY         0.03421  -0.00258  -0.00024  -0.00065   0.00133
 101        9PZ         0.00215  -0.02187  -0.00023  -0.00068   0.00166
 102       10PX        -0.06689   0.00823   0.00683   0.01869  -0.03823
 103       10PY         0.07648  -0.00129  -0.00024  -0.00063   0.00131
 104       10PZ         0.00225  -0.04784  -0.00021  -0.00063   0.00189
 105       11PX        -0.02497   0.00673  -0.00070  -0.00201   0.00426
 106       11PY         0.03559  -0.00692  -0.00054  -0.00150   0.00310
 107       11PZ         0.01049  -0.03886   0.00033   0.00088  -0.00158
 108 9   Cl 1S         -0.00029   0.00066  -0.00010  -0.00029   0.00077
 109        2S         -0.00081   0.00192  -0.00031  -0.00090   0.00235
 110        3S          0.00189  -0.00407   0.00080   0.00234  -0.00578
 111        4S          0.00389  -0.00708   0.00080   0.00236  -0.00655
 112        5S         -0.00376   0.00703  -0.00106  -0.00309   0.00864
 113        6S         -0.02757   0.03571  -0.00772  -0.02152   0.04628
 114        7PX         0.00586   0.01382   0.00106   0.00292  -0.00619
 115        7PY        -0.04541   0.02403   0.00159   0.00435  -0.00902
 116        7PZ         0.02111  -0.01200  -0.00233  -0.00634   0.01292
 117        8PX        -0.00208  -0.00547  -0.00039  -0.00107   0.00227
 118        8PY         0.01753  -0.00939  -0.00058  -0.00159   0.00331
 119        8PZ        -0.00836   0.00486   0.00086   0.00236  -0.00484
 120        9PX        -0.00822  -0.01393  -0.00108  -0.00297   0.00631
 121        9PY         0.04981  -0.02577  -0.00166  -0.00452   0.00937
 122        9PZ        -0.02088   0.01137   0.00223   0.00606  -0.01232
 123       10PX        -0.01145  -0.04138  -0.00236  -0.00651   0.01381
 124       10PY         0.12703  -0.07274  -0.00347  -0.00949   0.01960
 125       10PZ        -0.06542   0.04125   0.00540   0.01475  -0.02987
 126       11PX        -0.00417  -0.02300   0.00076   0.00210  -0.00419
 127       11PY         0.04738  -0.02515  -0.00003  -0.00005   0.00012
 128       11PZ        -0.02665   0.02181  -0.00056  -0.00162   0.00357
                          56        57        58        59        60
  56        4S          0.99005
  57        5S         -0.43489   0.91930
  58        6S         -0.31700   0.51055   0.39008
  59        7PX         0.00041  -0.00333   0.00849   0.34544
  60        7PY         0.00327  -0.00577  -0.01406   0.00037   0.34619
  61        7PZ         0.00256  -0.00877   0.00581   0.00050   0.00114
  62        8PX         0.00092  -0.00704   0.01471   0.57697   0.00050
  63        8PY         0.00455  -0.00893  -0.02494   0.00054   0.57842
  64        8PZ         0.00412  -0.01666   0.00973   0.00086   0.00184
  65        9PX        -0.00703   0.01665  -0.01529   0.02137  -0.00001
  66        9PY        -0.00469   0.00704   0.03605  -0.00030   0.01860
  67        9PZ        -0.01420   0.03131  -0.00429  -0.00135  -0.00202
  68       10PX         0.01851  -0.02121  -0.04158  -0.06874  -0.00516
  69       10PY        -0.02748   0.05242   0.05123  -0.00414  -0.06616
  70       10PZ         0.01453  -0.00465  -0.03856  -0.00102  -0.00649
  71       11PX         0.02080  -0.03695  -0.01176  -0.00426   0.00166
  72       11PY         0.03152  -0.04632  -0.06577   0.00188  -0.00245
  73       11PZ         0.05212  -0.08706  -0.05693   0.00129   0.00383
  74 7   O  1S         -0.00449   0.01007   0.03420   0.00077   0.00057
  75        2S         -0.00761   0.01734   0.05316   0.00119   0.00088
  76        2PX         0.02445  -0.05056  -0.01103  -0.01012   0.00697
  77        2PY         0.03217  -0.05844  -0.05835   0.00705  -0.00472
  78        2PZ         0.05854  -0.11644  -0.05156   0.01193   0.01728
  79        3S          0.02955  -0.06548  -0.15430  -0.00285  -0.00237
  80        3PX         0.03753  -0.07590  -0.01765  -0.01459   0.01017
  81        3PY         0.05011  -0.08984  -0.08473   0.01026  -0.00661
  82        3PZ         0.09029  -0.17600  -0.07753   0.01731   0.02525
  83        4S          0.04965  -0.10181  -0.16934  -0.00016   0.00859
  84        4PX         0.02698  -0.05747  -0.00268  -0.01282   0.00765
  85        4PY         0.03595  -0.06360  -0.07069   0.00868  -0.00840
  86        4PZ         0.06489  -0.13076  -0.04496   0.01453   0.01842
  87 8   Cl 1S          0.00104  -0.00212  -0.00704   0.00035   0.00003
  88        2S          0.00319  -0.00637  -0.02045   0.00097   0.00010
  89        3S         -0.00842   0.01625   0.04159  -0.00163  -0.00024
  90        4S         -0.00917   0.02247   0.06433  -0.00406  -0.00029
  91        5S          0.01421  -0.03917  -0.08010   0.00603   0.00012
  92        6S          0.08175  -0.14424  -0.14892  -0.00764   0.00312
  93        7PX         0.03345  -0.05344  -0.06149  -0.02136  -0.00097
  94        7PY        -0.00204   0.00223   0.01448   0.00001   0.00404
  95        7PZ        -0.00107   0.00187  -0.00307   0.00011  -0.00035
  96        8PX        -0.01241   0.01965   0.02306   0.00801   0.00037
  97        8PY         0.00071  -0.00077  -0.00543  -0.00000  -0.00151
  98        8PZ         0.00031  -0.00059   0.00126  -0.00005   0.00013
  99        9PX        -0.03321   0.05309   0.06484   0.02337   0.00112
 100        9PY         0.00283  -0.00336  -0.01716  -0.00000  -0.00429
 101        9PZ         0.00180  -0.00310   0.00304  -0.00003   0.00043
 102       10PX        -0.07608   0.11666   0.14887   0.05117   0.00273
 103       10PY         0.00347  -0.00313  -0.03544   0.00003  -0.00992
 104       10PZ         0.00087  -0.00242   0.01026  -0.00054   0.00087
 105       11PX         0.00573  -0.01290   0.01816   0.01626   0.00252
 106       11PY         0.00600  -0.00894  -0.01982  -0.00057  -0.00332
 107       11PZ        -0.00430   0.00762   0.00996  -0.00067   0.00010
 108 9   Cl 1S          0.00104  -0.00212  -0.00704  -0.00016  -0.00014
 109        2S          0.00319  -0.00637  -0.02045  -0.00044  -0.00039
 110        3S         -0.00842   0.01625   0.04159   0.00083   0.00063
 111        4S         -0.00916   0.02246   0.06433   0.00158   0.00169
 112        5S          0.01419  -0.03915  -0.08008  -0.00172  -0.00260
 113        6S          0.08174  -0.14424  -0.14885  -0.00098   0.00545
 114        7PX        -0.01118   0.01847   0.01142   0.00168  -0.00382
 115        7PY        -0.01772   0.02751   0.04010  -0.00354  -0.00105
 116        7PZ         0.02618  -0.04204  -0.04758   0.00579   0.00832
 117        8PX         0.00410  -0.00674  -0.00420  -0.00061   0.00144
 118        8PY         0.00651  -0.01004  -0.01501   0.00134   0.00040
 119        8PZ        -0.00978   0.01553   0.01790  -0.00217  -0.00311
 120        9PX         0.01133  -0.01882  -0.01131  -0.00187   0.00410
 121        9PY         0.01848  -0.02863  -0.04392   0.00374   0.00118
 122        9PZ        -0.02540   0.04082   0.04952  -0.00621  -0.00898
 123       10PX         0.02471  -0.03979  -0.02518  -0.00376   0.00934
 124       10PY         0.03890  -0.05814  -0.09663   0.00894   0.00230
 125       10PZ        -0.06066   0.09309   0.11648  -0.01398  -0.01966
 126       11PX        -0.00827   0.01479   0.01131  -0.00105   0.00244
 127       11PY         0.00106   0.00080  -0.02221   0.00236  -0.00018
 128       11PZ         0.00422  -0.00924   0.01417  -0.00530  -0.00519
                          61        62        63        64        65
  61        7PZ         0.34674
  62        8PX         0.00083   0.96373
  63        8PY         0.00190   0.00066   0.96654
  64        8PZ         0.57909   0.00146   0.00308   0.96724
  65        9PX        -0.00119   0.03455   0.00024  -0.00225   0.05347
  66        9PY        -0.00249  -0.00017   0.02894  -0.00434  -0.00140
  67        9PZ         0.01871  -0.00249  -0.00368   0.02981   0.00359
  68       10PX        -0.00161  -0.11650  -0.00888  -0.00278   0.12184
  69       10PY        -0.00481  -0.00689  -0.11197  -0.00786   0.00758
  70       10PZ        -0.07498  -0.00164  -0.01111  -0.12700   0.00118
  71       11PX         0.00117  -0.00622   0.00267   0.00189   0.00276
  72       11PY         0.00419   0.00285  -0.00255   0.00691  -0.00168
  73       11PZ        -0.00007   0.00200   0.00659   0.00063  -0.00212
  74 7   O  1S          0.00159   0.00153   0.00131   0.00325  -0.00193
  75        2S          0.00246   0.00239   0.00209   0.00511  -0.00304
  76        2PX         0.01188  -0.01617   0.01164   0.02014   0.01294
  77        2PY         0.01741   0.01185  -0.00650   0.02968  -0.01300
  78        2PZ         0.01455   0.02026   0.02933   0.02567  -0.02378
  79        3S         -0.00602  -0.00589  -0.00583  -0.01299   0.00719
  80        3PX         0.01726  -0.02332   0.01703   0.02930   0.01889
  81        3PY         0.02539   0.01727  -0.00905   0.04334  -0.01910
  82        3PZ         0.02132   0.02943   0.04295   0.03768  -0.03477
  83        4S          0.00468  -0.00156   0.01257   0.00468   0.00452
  84        4PX         0.01394  -0.02022   0.01280   0.02375   0.01499
  85        4PY         0.02010   0.01469  -0.01206   0.03450  -0.01673
  86        4PZ         0.01575   0.02484   0.03142   0.02852  -0.03032
  87 8   Cl 1S         -0.00003   0.00067   0.00005  -0.00004  -0.00052
  88        2S         -0.00008   0.00184   0.00015  -0.00012  -0.00141
  89        3S          0.00021  -0.00315  -0.00036   0.00033   0.00226
  90        4S          0.00010  -0.00766  -0.00040   0.00008   0.00642
  91        5S          0.00044   0.01147   0.00006   0.00096  -0.00908
  92        6S         -0.00256  -0.01110   0.00523  -0.00433   0.00988
  93        7PX        -0.00224  -0.03706  -0.00145  -0.00390   0.04599
  94        7PY        -0.00022   0.00013   0.00564  -0.00048  -0.00091
  95        7PZ         0.00384   0.00007  -0.00076   0.00529   0.00064
  96        8PX         0.00084   0.01392   0.00055   0.00146  -0.01736
  97        8PY         0.00009  -0.00005  -0.00211   0.00018   0.00034
  98        8PZ        -0.00142  -0.00005   0.00029  -0.00195  -0.00022
  99        9PX         0.00269   0.04044   0.00168   0.00468  -0.04950
 100        9PY         0.00025  -0.00013  -0.00589   0.00054   0.00103
 101        9PZ        -0.00414   0.00009   0.00092  -0.00562  -0.00095
 102       10PX         0.00511   0.08931   0.00406   0.00895  -0.11418
 103       10PY         0.00070  -0.00024  -0.01367   0.00142   0.00220
 104       10PZ        -0.00894  -0.00063   0.00190  -0.01194  -0.00102
 105       11PX         0.00193   0.02860   0.00413   0.00338  -0.03856
 106       11PY        -0.00098  -0.00109  -0.00420  -0.00153   0.00208
 107       11PZ        -0.00369  -0.00099   0.00039  -0.00466   0.00042
 108 9   Cl 1S          0.00028  -0.00028  -0.00028   0.00054   0.00019
 109        2S          0.00078  -0.00079  -0.00077   0.00148   0.00052
 110        3S         -0.00129   0.00150   0.00127  -0.00251  -0.00095
 111        4S         -0.00335   0.00283   0.00329  -0.00633  -0.00176
 112        5S          0.00518  -0.00311  -0.00505   0.00987   0.00080
 113        6S         -0.00663  -0.00226   0.00833  -0.00973   0.00226
 114        7PX         0.00742   0.00188  -0.00650   0.01233   0.00421
 115        7PY         0.01027  -0.00592  -0.00306   0.01727   0.00605
 116        7PZ        -0.01411   0.00959   0.01402  -0.02495  -0.00903
 117        8PX        -0.00278  -0.00067   0.00245  -0.00463  -0.00164
 118        8PY        -0.00385   0.00224   0.00116  -0.00648  -0.00230
 119        8PZ         0.00529  -0.00360  -0.00525   0.00937   0.00341
 120        9PX        -0.00809  -0.00208   0.00695  -0.01338  -0.00486
 121        9PY        -0.01123   0.00624   0.00344  -0.01881  -0.00613
 122        9PZ         0.01562  -0.01025  -0.01505   0.02757   0.00921
 123       10PX        -0.01785  -0.00379   0.01597  -0.02972  -0.01219
 124       10PY        -0.02458   0.01499   0.00734  -0.04144  -0.01556
 125       10PZ         0.03377  -0.02318  -0.03325   0.06014   0.02204
 126       11PX        -0.00608  -0.00052   0.00420  -0.00997  -0.00764
 127       11PY        -0.00930   0.00400   0.00120  -0.01557  -0.00408
 128       11PZ         0.01048  -0.00871  -0.00862   0.01907   0.00750
                          66        67        68        69        70
  66        9PY         0.06344
  67        9PZ         0.00499   0.05955
  68       10PX         0.01118   0.00325   0.36726
  69       10PY         0.11495   0.00733   0.02701   0.36337
  70       10PZ         0.01322   0.13334   0.01190   0.04068   0.41236
  71       11PX        -0.00210  -0.00235   0.04825  -0.01752  -0.00583
  72       11PY        -0.00460  -0.00738  -0.02267   0.06131  -0.02810
  73       11PZ        -0.00806  -0.00464  -0.00878  -0.01962   0.01999
  74 7   O  1S         -0.00204  -0.00434   0.00229   0.00762   0.00813
  75        2S         -0.00332  -0.00688   0.00361   0.01234   0.01301
  76        2PX        -0.01188  -0.02314   0.07879  -0.04927  -0.06636
  77        2PY        -0.00111  -0.03509  -0.04681   0.06545  -0.09767
  78        2PZ        -0.03326  -0.03518  -0.06494  -0.10171  -0.06286
  79        3S          0.00930   0.01711  -0.01150  -0.03478  -0.03882
  80        3PX        -0.01766  -0.03395   0.11343  -0.07087  -0.09550
  81        3PY        -0.00190  -0.05158  -0.06774   0.09356  -0.14159
  82        3PZ        -0.04923  -0.05186  -0.09370  -0.14671  -0.09098
  83        4S         -0.00984   0.00173  -0.03167  -0.10251  -0.11081
  84        4PX        -0.01312  -0.02824   0.10641  -0.05535  -0.07446
  85        4PY         0.00154  -0.04240  -0.05652   0.10513  -0.10826
  86        4PZ        -0.03648  -0.04301  -0.07513  -0.10635  -0.05177
  87 8   Cl 1S         -0.00001   0.00000   0.00115  -0.00040   0.00034
  88        2S         -0.00005   0.00002   0.00353  -0.00117   0.00099
  89        3S          0.00018  -0.00013  -0.00918   0.00251  -0.00246
  90        4S         -0.00006   0.00045  -0.01045   0.00406  -0.00327
  91        5S          0.00064  -0.00240   0.01552  -0.00396   0.00360
  92        6S         -0.00578   0.00353   0.09942  -0.02121   0.02007
  93        7PX         0.00038   0.00494   0.10434   0.01459   0.01107
  94        7PY         0.00181   0.00125   0.00455  -0.05071  -0.00288
  95        7PZ         0.00211   0.00226  -0.00316  -0.00434  -0.04629
  96        8PX        -0.00013  -0.00183  -0.03884  -0.00563  -0.00397
  97        8PY        -0.00070  -0.00048  -0.00174   0.01922   0.00105
  98        8PZ        -0.00080  -0.00090   0.00123   0.00164   0.01747
  99        9PX        -0.00062  -0.00604  -0.11556  -0.01583  -0.01360
 100        9PY        -0.00279  -0.00142  -0.00512   0.05565   0.00334
 101        9PZ        -0.00246  -0.00316   0.00334   0.00472   0.05100
 102       10PX        -0.00103  -0.01168  -0.24083  -0.04121  -0.02180
 103       10PY        -0.00541  -0.00337  -0.01209   0.12979   0.00614
 104       10PZ        -0.00530  -0.00757   0.00877   0.01105   0.11566
 105       11PX        -0.00378  -0.00508  -0.07279  -0.02281  -0.00775
 106       11PY        -0.00526   0.00069  -0.00181   0.04964   0.01172
 107       11PZ        -0.00218  -0.00554   0.00662   0.00792   0.05238
 108 9   Cl 1S          0.00023  -0.00043   0.00008  -0.00078   0.00099
 109        2S          0.00063  -0.00116   0.00018  -0.00235   0.00304
 110        3S         -0.00095   0.00184  -0.00010   0.00570  -0.00800
 111        4S         -0.00293   0.00545  -0.00106   0.00736  -0.00899
 112        5S          0.00410  -0.00844  -0.00043  -0.00958   0.01331
 113        6S         -0.00845   0.00818  -0.00712  -0.05861   0.08515
 114        7PX         0.00733  -0.01186  -0.02656   0.02002  -0.04827
 115        7PY         0.01183  -0.01785   0.02217  -0.02647  -0.06256
 116        7PZ        -0.01450   0.03400  -0.03859  -0.04817   0.06038
 117        8PX        -0.00279   0.00447   0.01003  -0.00750   0.01808
 118        8PY        -0.00450   0.00672  -0.00844   0.01018   0.02337
 119        8PZ         0.00547  -0.01282   0.01457   0.01795  -0.02236
 120        9PX        -0.00761   0.01251   0.02956  -0.02202   0.05348
 121        9PY        -0.01326   0.01903  -0.02366   0.02906   0.06935
 122        9PZ         0.01495  -0.03733   0.04177   0.05313  -0.06752
 123       10PX        -0.01857   0.02912   0.06693  -0.04754   0.11535
 124       10PY        -0.03037   0.04369  -0.05740   0.07370   0.14797
 125       10PZ         0.03538  -0.08458   0.09587   0.11146  -0.13602
 126       11PX        -0.00505   0.00908   0.02648  -0.01065   0.04250
 127       11PY        -0.01167   0.01605  -0.01396   0.03739   0.05809
 128       11PZ         0.00774  -0.03004   0.03830   0.03295  -0.03462
                          71        72        73        74        75
  71       11PX         0.07698
  72       11PY        -0.00667   0.08456
  73       11PZ        -0.02589  -0.01432   0.03980
  74 7   O  1S         -0.00094  -0.00002  -0.00154   0.64119
  75        2S         -0.00205  -0.00125  -0.00406   0.57163   0.52747
  76        2PX         0.09338  -0.01920  -0.02823  -0.00332  -0.00506
  77        2PY        -0.00913   0.10200  -0.01602  -0.00465  -0.00707
  78        2PZ        -0.02244  -0.03251   0.04841  -0.00812  -0.01235
  79        3S          0.00928   0.00846   0.02001  -0.14234  -0.23853
  80        3PX         0.13153  -0.02645  -0.03926  -0.00241  -0.00414
  81        3PY        -0.01285   0.14475  -0.02188  -0.00335  -0.00575
  82        3PZ        -0.03144  -0.04414   0.06932  -0.00587  -0.01009
  83        4S          0.00313   0.01056   0.01108  -0.14967  -0.23499
  84        4PX         0.13807  -0.02954  -0.04175  -0.00089  -0.00192
  85        4PY        -0.01158   0.14512  -0.02358  -0.00177  -0.00345
  86        4PZ        -0.03144  -0.05301   0.07124  -0.00247  -0.00513
  87 8   Cl 1S          0.00434   0.00027   0.00030  -0.00006  -0.00011
  88        2S          0.01251   0.00080   0.00087  -0.00020  -0.00032
  89        3S         -0.02487  -0.00177  -0.00183   0.00050   0.00081
  90        4S         -0.04108  -0.00253  -0.00329   0.00047   0.00088
  91        5S          0.04632   0.00371   0.00800  -0.00022  -0.00069
  92        6S          0.10408   0.00776  -0.00495  -0.00644  -0.01019
  93        7PX        -0.02802   0.00724   0.01556   0.00019   0.00043
  94        7PY        -0.00824  -0.01078  -0.00162  -0.00056  -0.00083
  95        7PZ        -0.01130   0.00053  -0.00759  -0.00122  -0.00177
  96        8PX         0.01132  -0.00279  -0.00608  -0.00010  -0.00018
  97        8PY         0.00314   0.00411   0.00059   0.00023   0.00033
  98        8PZ         0.00425  -0.00025   0.00291   0.00047   0.00068
  99        9PX         0.02693  -0.00736  -0.01526  -0.00038  -0.00084
 100        9PY         0.00952   0.01195   0.00216   0.00054   0.00079
 101        9PZ         0.01352  -0.00010   0.00845   0.00130   0.00187
 102       10PX         0.09599  -0.02022  -0.04579  -0.00121  -0.00205
 103       10PY         0.02185   0.02862   0.00322   0.00172   0.00251
 104       10PZ         0.02883  -0.00288   0.02039   0.00324   0.00473
 105       11PX         0.04698  -0.00395  -0.01468  -0.00417  -0.00667
 106       11PY         0.01248  -0.00025   0.00730  -0.00022  -0.00019
 107       11PZ         0.01700   0.00567   0.00451   0.00121   0.00208
 108 9   Cl 1S         -0.00135  -0.00172   0.00377  -0.00006  -0.00011
 109        2S         -0.00388  -0.00495   0.01088  -0.00020  -0.00032
 110        3S          0.00771   0.00967  -0.02173   0.00050   0.00081
 111        4S          0.01234   0.01622  -0.03591   0.00047   0.00089
 112        5S         -0.01081  -0.01634   0.04289  -0.00022  -0.00069
 113        6S         -0.04273  -0.04379   0.08470  -0.00644  -0.01018
 114        7PX        -0.01151  -0.00241  -0.00116  -0.00079  -0.00120
 115        7PY        -0.00411  -0.01476  -0.00648  -0.00091  -0.00140
 116        7PZ         0.01587   0.01952  -0.02013  -0.00062  -0.00077
 117        8PX         0.00455   0.00104   0.00026   0.00031   0.00046
 118        8PY         0.00171   0.00579   0.00223   0.00037   0.00056
 119        8PZ        -0.00629  -0.00774   0.00800   0.00022   0.00029
 120        9PX         0.01133   0.00164   0.00259   0.00093   0.00144
 121        9PY         0.00326   0.01484   0.00890   0.00101   0.00159
 122        9PZ        -0.01561  -0.01918   0.02116   0.00050   0.00049
 123       10PX         0.03553   0.01018  -0.00276   0.00225   0.00337
 124       10PY         0.01545   0.04453   0.00928   0.00293   0.00441
 125       10PZ        -0.05029  -0.06221   0.06496   0.00113   0.00142
 126       11PX         0.00399   0.01022  -0.00199   0.00250   0.00404
 127       11PY         0.01239   0.01000   0.00260   0.00212   0.00358
 128       11PZ        -0.02303  -0.02627   0.03725  -0.00285  -0.00445
                          76        77        78        79        80
  76        2PX         0.15620
  77        2PY        -0.01073   0.14950
  78        2PZ        -0.02181  -0.02692   0.11454
  79        3S          0.01571   0.02169   0.03820   0.73050
  80        3PX         0.21924  -0.01440  -0.02920   0.01568   0.30794
  81        3PY        -0.01481   0.21187  -0.03584   0.02156  -0.01970
  82        3PZ        -0.02943  -0.03517   0.16359   0.03808  -0.03907
  83        4S          0.02099   0.02754   0.05020   0.66599   0.02418
  84        4PX         0.23018  -0.01884  -0.03914   0.01041   0.32264
  85        4PY        -0.01779   0.21201  -0.04954   0.01589  -0.02408
  86        4PZ        -0.03854  -0.05125   0.15489   0.02620  -0.05208
  87 8   Cl 1S          0.00138   0.00003   0.00004   0.00040   0.00207
  88        2S          0.00404   0.00009   0.00008   0.00120   0.00603
  89        3S         -0.00888  -0.00015   0.00004  -0.00288  -0.01317
  90        4S         -0.01369  -0.00041  -0.00102  -0.00404  -0.02023
  91        5S          0.01345   0.00124   0.00474   0.00508   0.01976
  92        6S          0.08588  -0.00244  -0.01586   0.03226   0.12227
  93        7PX        -0.02500  -0.00412  -0.00941  -0.00330  -0.03409
  94        7PY        -0.00580   0.00638  -0.00722   0.00048  -0.00856
  95        7PZ        -0.00929  -0.00703  -0.00248   0.00096  -0.01385
  96        8PX         0.01017   0.00148   0.00335   0.00124   0.01391
  97        8PY         0.00225  -0.00240   0.00271  -0.00022   0.00331
  98        8PZ         0.00354   0.00264   0.00096  -0.00041   0.00528
  99        9PX         0.02445   0.00525   0.01223   0.00492   0.03322
 100        9PY         0.00682  -0.00794   0.00901  -0.00010   0.01007
 101        9PZ         0.01134   0.00876   0.00287  -0.00061   0.01688
 102       10PX         0.08915   0.00781   0.01704   0.01125   0.12294
 103       10PY         0.01745  -0.01546   0.01713  -0.00221   0.02551
 104       10PZ         0.02636   0.01703   0.00693  -0.00283   0.03907
 105       11PX         0.05029   0.00579   0.00833   0.02193   0.06998
 106       11PY         0.00604  -0.03061   0.02294   0.00226   0.00930
 107       11PZ         0.01145   0.01851  -0.00190  -0.00198   0.01746
 108 9   Cl 1S         -0.00045  -0.00061   0.00116   0.00040  -0.00065
 109        2S         -0.00134  -0.00180   0.00336   0.00120  -0.00192
 110        3S          0.00309   0.00406  -0.00727  -0.00288   0.00443
 111        4S          0.00397   0.00579  -0.01181  -0.00405   0.00571
 112        5S         -0.00124  -0.00392   0.01371   0.00508  -0.00184
 113        6S         -0.04072  -0.04689   0.06144   0.03226  -0.05711
 114        7PX         0.00595  -0.00650   0.00308   0.00167   0.00726
 115        7PY        -0.00579   0.00173   0.00379   0.00222  -0.00696
 116        7PZ         0.00240   0.00517  -0.02878  -0.00207   0.00312
 117        8PX        -0.00209   0.00261  -0.00131  -0.00064  -0.00252
 118        8PY         0.00234  -0.00046  -0.00161  -0.00088   0.00284
 119        8PZ        -0.00121  -0.00235   0.01129   0.00074  -0.00161
 120        9PX        -0.00844   0.00690  -0.00218  -0.00211  -0.01059
 121        9PY         0.00607  -0.00356  -0.00265  -0.00258   0.00720
 122        9PZ        -0.00087  -0.00360   0.03139   0.00368  -0.00094
 123       10PX        -0.00971   0.02098  -0.01240  -0.00506  -0.01074
 124       10PY         0.01890   0.00187  -0.01530  -0.00793   0.02357
 125       10PZ        -0.01737  -0.02756   0.08845   0.00713  -0.02374
 126       11PX        -0.02175   0.02355  -0.00821  -0.01008  -0.02906
 127       11PY         0.02794  -0.00780  -0.01170  -0.00900   0.03733
 128       11PZ        -0.00866  -0.01484   0.04734   0.01753  -0.01195
                          81        82        83        84        85
  81        3PY         0.30057
  82        3PZ        -0.04625   0.23430
  83        4S          0.03133   0.05761   0.65588
  84        4PX        -0.02613  -0.05326   0.00911   0.34317
  85        4PY         0.29995  -0.06592   0.01298  -0.02762   0.30589
  86        4PZ        -0.06928   0.22087   0.02238  -0.06174  -0.08278
  87 8   Cl 1S          0.00005   0.00009   0.00059   0.00158  -0.00004
  88        2S          0.00015   0.00022   0.00176   0.00461  -0.00011
  89        3S         -0.00026  -0.00016  -0.00369  -0.01048   0.00021
  90        4S         -0.00064  -0.00172  -0.00420  -0.01627  -0.00013
  91        5S          0.00184   0.00696   0.00220   0.01556   0.00168
  92        6S         -0.00338  -0.02147   0.02505   0.11989  -0.00235
  93        7PX        -0.00585  -0.01330   0.00316  -0.04262  -0.00642
  94        7PY         0.00711  -0.00964   0.01487  -0.01186   0.01234
  95        7PZ        -0.00904  -0.00418   0.03202  -0.01929  -0.02126
  96        8PX         0.00210   0.00475  -0.00135   0.01718   0.00238
  97        8PY        -0.00267   0.00362  -0.00567   0.00457  -0.00466
  98        8PZ         0.00339   0.00162  -0.01219   0.00735   0.00803
  99        9PX         0.00752   0.01732  -0.00140   0.04224   0.00765
 100        9PY        -0.00903   0.01209  -0.01630   0.01370  -0.01511
 101        9PZ         0.01138   0.00487  -0.03576   0.02297   0.02514
 102       10PX         0.01095   0.02415  -0.01101   0.14597   0.01453
 103       10PY        -0.01689   0.02277  -0.03903   0.03441  -0.03047
 104       10PZ         0.02181   0.01161  -0.08295   0.05345   0.05308
 105       11PX         0.00838   0.01226   0.01384   0.07841   0.00844
 106       11PY        -0.04053   0.03123  -0.01623   0.01224  -0.04918
 107       11PZ         0.02480  -0.00183  -0.04184   0.02319   0.04164
 108 9   Cl 1S         -0.00090   0.00174   0.00059  -0.00064  -0.00081
 109        2S         -0.00264   0.00508   0.00176  -0.00189  -0.00240
 110        3S          0.00592  -0.01091  -0.00369   0.00438   0.00543
 111        4S          0.00847  -0.01756  -0.00420   0.00543   0.00749
 112        5S         -0.00574   0.02014   0.00221  -0.00087  -0.00409
 113        6S         -0.06637   0.08806   0.02501  -0.05948  -0.06534
 114        7PX        -0.00767   0.00371   0.01809   0.00972  -0.01903
 115        7PY         0.00194   0.00423   0.02011  -0.01663  -0.00022
 116        7PZ         0.00689  -0.04035   0.02290   0.00186   0.00509
 117        8PX         0.00311  -0.00161  -0.00683  -0.00345   0.00740
 118        8PY        -0.00046  -0.00185  -0.00759   0.00650   0.00033
 119        8PZ        -0.00316   0.01584  -0.00884  -0.00113  -0.00244
 120        9PX         0.00802  -0.00237  -0.02107  -0.01352   0.02097
 121        9PY        -0.00446  -0.00247  -0.02321   0.01813  -0.00201
 122        9PZ        -0.00458   0.04410  -0.02376   0.00046  -0.00285
 123       10PX         0.02582  -0.01591  -0.04566  -0.01715   0.05433
 124       10PY         0.00413  -0.01879  -0.05118   0.04808   0.00842
 125       10PZ        -0.03799   0.12425  -0.06176  -0.02055  -0.03219
 126       11PX         0.03105  -0.01089  -0.03122  -0.03365   0.04706
 127       11PY        -0.01051  -0.01527  -0.03209   0.05253  -0.00764
 128       11PZ        -0.02060   0.06719  -0.01439  -0.01032  -0.01773
                          86        87        88        89        90
  86        4PZ         0.22247
  87 8   Cl 1S         -0.00015   0.37157
  88        2S         -0.00047   0.62683   1.09442
  89        3S          0.00117  -0.12654  -0.35631   0.59802
  90        4S         -0.00014  -0.18516  -0.49938   0.79967   1.10476
  91        5S          0.00632   0.03814   0.11022  -0.23878  -0.48084
  92        6S         -0.02477   0.05154   0.14767  -0.29608  -0.53490
  93        7PX        -0.01385   0.00152   0.00439  -0.01007  -0.01321
  94        7PY        -0.01974  -0.00011  -0.00033   0.00075   0.00104
  95        7PZ        -0.01515  -0.00018  -0.00051   0.00103   0.00215
  96        8PX         0.00501  -0.00046  -0.00139   0.00337   0.00438
  97        8PY         0.00745   0.00004   0.00011  -0.00027  -0.00038
  98        8PZ         0.00578   0.00006   0.00016  -0.00034  -0.00075
  99        9PX         0.01743  -0.00242  -0.00686   0.01394   0.02322
 100        9PY         0.02344   0.00016   0.00046  -0.00094  -0.00162
 101        9PZ         0.01706   0.00029   0.00081  -0.00149  -0.00351
 102       10PX         0.02743  -0.00090  -0.00283   0.00770   0.01090
 103       10PY         0.04851   0.00019   0.00056  -0.00125  -0.00210
 104       10PZ         0.03968   0.00016   0.00045  -0.00077  -0.00335
 105       11PX         0.01055  -0.00091  -0.00259   0.00626   0.01376
 106       11PY         0.04623  -0.00001  -0.00002  -0.00013  -0.00031
 107       11PZ         0.01195   0.00022   0.00061  -0.00115  -0.00328
 108 9   Cl 1S          0.00120   0.00002   0.00005  -0.00010  -0.00017
 109        2S          0.00349   0.00005   0.00013  -0.00029  -0.00049
 110        3S         -0.00791  -0.00010  -0.00029   0.00065   0.00108
 111        4S         -0.01338  -0.00017  -0.00049   0.00108   0.00201
 112        5S          0.01634   0.00027   0.00078  -0.00172  -0.00352
 113        6S          0.08478   0.00083   0.00242  -0.00491  -0.00804
 114        7PX        -0.00182  -0.00053  -0.00155   0.00334   0.00529
 115        7PY        -0.00137  -0.00005  -0.00017   0.00048  -0.00005
 116        7PZ        -0.05493   0.00004   0.00015  -0.00044   0.00031
 117        8PX         0.00047   0.00021   0.00061  -0.00131  -0.00209
 118        8PY         0.00024   0.00002   0.00005  -0.00016   0.00005
 119        8PZ         0.02142  -0.00001  -0.00002   0.00010  -0.00020
 120        9PX         0.00414   0.00054   0.00157  -0.00337  -0.00527
 121        9PY         0.00411   0.00005   0.00017  -0.00048   0.00020
 122        9PZ         0.05971  -0.00006  -0.00018   0.00047  -0.00042
 123       10PX        -0.00241   0.00148   0.00429  -0.00925  -0.01481
 124       10PY        -0.00532   0.00001   0.00006  -0.00055   0.00120
 125       10PZ         0.16388   0.00016   0.00041  -0.00028  -0.00308
 126       11PX        -0.00302  -0.00037  -0.00107   0.00188   0.00335
 127       11PY        -0.00718  -0.00022  -0.00060   0.00103   0.00281
 128       11PZ         0.08250   0.00021   0.00060  -0.00123  -0.00302
                          91        92        93        94        95
  91        5S          0.85566
  92        6S          0.77778   0.78841
  93        7PX         0.02735   0.02096   1.36418
  94        7PY        -0.00216  -0.00556   0.00131   1.39866
  95        7PZ        -0.00595  -0.00139   0.00270   0.00015   1.39881
  96        8PX        -0.00948  -0.00659  -0.46515  -0.00051  -0.00105
  97        8PY         0.00078   0.00207  -0.00052  -0.47826  -0.00003
  98        8PZ         0.00215   0.00037  -0.00100  -0.00004  -0.47833
  99        9PX        -0.03819  -0.03598   0.01213  -0.00159  -0.00314
 100        9PY         0.00280   0.00710  -0.00154  -0.03255  -0.00038
 101        9PZ         0.00779   0.00331  -0.00356  -0.00033  -0.03269
 102       10PX        -0.03457  -0.00518  -0.18658  -0.00388  -0.00817
 103       10PY         0.00414   0.01364  -0.00384  -0.26739   0.00025
 104       10PZ         0.01166  -0.00022  -0.00626   0.00005  -0.26816
 105       11PX        -0.03608  -0.00447  -0.06704  -0.00313  -0.00087
 106       11PY         0.00180   0.00787  -0.00167  -0.14467   0.00028
 107       11PZ         0.00869   0.00236  -0.00340   0.00035  -0.14491
 108 9   Cl 1S          0.00027   0.00083   0.00024   0.00022  -0.00043
 109        2S          0.00078   0.00242   0.00072   0.00063  -0.00124
 110        3S         -0.00172  -0.00491  -0.00171  -0.00129   0.00265
 111        4S         -0.00352  -0.00804  -0.00151  -0.00244   0.00446
 112        5S          0.00627   0.01434  -0.00260   0.00310  -0.00440
 113        6S          0.01433   0.00591   0.02549   0.00879  -0.02121
 114        7PX        -0.00417  -0.03002   0.01237   0.00367  -0.00780
 115        7PY         0.00255  -0.01070   0.00594  -0.00231  -0.00498
 116        7PZ        -0.00345   0.01270  -0.00752  -0.00349   0.00376
 117        8PX         0.00170   0.01162  -0.00483  -0.00151   0.00311
 118        8PY        -0.00097   0.00416  -0.00237   0.00081   0.00209
 119        8PZ         0.00134  -0.00499   0.00299   0.00147  -0.00169
 120        9PX         0.00371   0.03143  -0.01348  -0.00354   0.00816
 121        9PY        -0.00308   0.01057  -0.00577   0.00335   0.00431
 122        9PZ         0.00409  -0.01163   0.00724   0.00305  -0.00227
 123       10PX         0.01198   0.08272  -0.03610  -0.01373   0.02598
 124       10PY        -0.00803   0.02939  -0.01879   0.00317   0.01896
 125       10PZ         0.01182  -0.03724   0.02368   0.01316  -0.01841
 126       11PX        -0.00763   0.01577  -0.01789  -0.00210   0.01402
 127       11PY        -0.00753   0.01205  -0.01124   0.01040   0.01095
 128       11PZ         0.00817  -0.00676   0.01336   0.00993  -0.00559
                          96        97        98        99       100
  96        8PX         0.15874
  97        8PY         0.00020   0.16369
  98        8PZ         0.00039   0.00000   0.16373
  99        9PX        -0.00097   0.00061   0.00115   0.08459
 100        9PY         0.00059   0.01581   0.00012   0.00174   0.13735
 101        9PZ         0.00137   0.00009   0.01588   0.00383   0.00061
 102       10PX         0.07141   0.00151   0.00299   0.19408   0.00459
 103       10PY         0.00147   0.10155  -0.00014   0.00453   0.30112
 104       10PZ         0.00241  -0.00009   0.10188   0.00739   0.00050
 105       11PX         0.02580   0.00120   0.00028   0.07043   0.00370
 106       11PY         0.00066   0.05495  -0.00014   0.00200   0.16368
 107       11PZ         0.00133  -0.00017   0.05507   0.00378  -0.00017
 108 9   Cl 1S         -0.00008  -0.00009   0.00017  -0.00025  -0.00022
 109        2S         -0.00025  -0.00025   0.00050  -0.00076  -0.00064
 110        3S          0.00060   0.00051  -0.00106   0.00174   0.00132
 111        4S          0.00052   0.00096  -0.00179   0.00134   0.00252
 112        5S          0.00097  -0.00122   0.00178   0.00354  -0.00314
 113        6S         -0.00994  -0.00341   0.00818  -0.02504  -0.00925
 114        7PX        -0.00514  -0.00139   0.00305  -0.01083  -0.00442
 115        7PY        -0.00230   0.00091   0.00190  -0.00631   0.00252
 116        7PZ         0.00290   0.00135  -0.00147   0.00802   0.00401
 117        8PX         0.00201   0.00057  -0.00121   0.00425   0.00181
 118        8PY         0.00092  -0.00032  -0.00080   0.00252  -0.00089
 119        8PZ        -0.00115  -0.00057   0.00066  -0.00318  -0.00168
 120        9PX         0.00561   0.00135  -0.00319   0.01170   0.00429
 121        9PY         0.00223  -0.00132  -0.00165   0.00616  -0.00369
 122        9PZ        -0.00278  -0.00119   0.00091  -0.00775  -0.00350
 123       10PX         0.01493   0.00523  -0.01011   0.03215   0.01625
 124       10PY         0.00730  -0.00130  -0.00726   0.01975  -0.00340
 125       10PZ        -0.00919  -0.00507   0.00714  -0.02487  -0.01494
 126       11PX         0.00731   0.00080  -0.00543   0.01608   0.00257
 127       11PY         0.00437  -0.00399  -0.00416   0.01166  -0.01178
 128       11PZ        -0.00512  -0.00381   0.00217  -0.01399  -0.01115
                         101       102       103       104       105
 101        9PZ         0.13745
 102       10PX         0.01073   0.49672
 103       10PY         0.00013   0.01161   0.68809
 104       10PZ         0.30189   0.01949  -0.00167   0.69120
 105       11PX         0.00160   0.18389   0.00863   0.00152   0.07519
 106       11PY        -0.00018   0.00584   0.37300  -0.00144   0.00475
 107       11PZ         0.16385   0.01118  -0.00185   0.37441   0.00019
 108 9   Cl 1S          0.00043  -0.00037  -0.00064   0.00129   0.00040
 109        2S          0.00123  -0.00113  -0.00184   0.00373   0.00114
 110        3S         -0.00266   0.00314   0.00380  -0.00785  -0.00212
 111        4S         -0.00445   0.00191   0.00707  -0.01329  -0.00491
 112        5S          0.00419   0.00938  -0.00894   0.01341   0.01277
 113        6S          0.02285  -0.07204  -0.02495   0.05728  -0.01648
 114        7PX         0.00874  -0.04676  -0.01008   0.02368  -0.02110
 115        7PY         0.00584  -0.01670   0.00650   0.01268  -0.01128
 116        7PZ        -0.00409   0.02049   0.00943  -0.01109   0.01202
 117        8PX        -0.00349   0.01817   0.00413  -0.00940   0.00817
 118        8PY        -0.00244   0.00669  -0.00230  -0.00535   0.00441
 119        8PZ         0.00184  -0.00820  -0.00396   0.00490  -0.00474
 120        9PX        -0.00911   0.05103   0.00982  -0.02502   0.02273
 121        9PY        -0.00512   0.01604  -0.00928  -0.01081   0.01138
 122        9PZ         0.00240  -0.01922  -0.00830   0.00726  -0.01140
 123       10PX        -0.02911   0.13341   0.03735  -0.07677   0.05929
 124       10PY        -0.02189   0.05336  -0.00945  -0.04888   0.03281
 125       10PZ         0.02025  -0.06640  -0.03546   0.05156  -0.03679
 126       11PX        -0.01570   0.06281   0.00642  -0.04097   0.02444
 127       11PY        -0.01267   0.03216  -0.02719  -0.02725   0.01789
 128       11PZ         0.00596  -0.03571  -0.02642   0.01564  -0.01505
                         106       107       108       109       110
 106       11PY         0.20768
 107       11PZ        -0.00189   0.20551
 108 9   Cl 1S          0.00006  -0.00026   0.37157
 109        2S          0.00017  -0.00074   0.62683   1.09442
 110        3S         -0.00037   0.00122  -0.12654  -0.35631   0.59802
 111        4S         -0.00008   0.00203  -0.18516  -0.49938   0.79967
 112        5S         -0.00038  -0.00431   0.03814   0.11022  -0.23878
 113        6S          0.00072   0.01293   0.05154   0.14767  -0.29608
 114        7PX        -0.00605   0.01043  -0.00061  -0.00174   0.00388
 115        7PY         0.00939   0.01382  -0.00086  -0.00248   0.00564
 116        7PZ         0.00640  -0.00137   0.00112   0.00324  -0.00749
 117        8PX         0.00243  -0.00415   0.00018   0.00055  -0.00129
 118        8PY        -0.00351  -0.00549   0.00027   0.00080  -0.00191
 119        8PZ        -0.00256   0.00082  -0.00034  -0.00102   0.00250
 120        9PX         0.00607  -0.01095   0.00098   0.00275  -0.00546
 121        9PY        -0.01147  -0.01404   0.00135   0.00383  -0.00775
 122        9PZ        -0.00633  -0.00102  -0.00178  -0.00506   0.01037
 123       10PX         0.02075  -0.03420   0.00035   0.00106  -0.00264
 124       10PY        -0.02150  -0.04277   0.00062   0.00192  -0.00487
 125       10PZ        -0.01959   0.01341  -0.00060  -0.00192   0.00553
 126       11PX         0.00155  -0.01719   0.00049   0.00138  -0.00299
 127       11PY        -0.02390  -0.02486   0.00048   0.00138  -0.00338
 128       11PZ        -0.01415   0.00007  -0.00064  -0.00182   0.00451
                         111       112       113       114       115
 111        4S          1.10476
 112        5S         -0.48084   0.85566
 113        6S         -0.53491   0.77779   0.78842
 114        7PX         0.00571  -0.01304  -0.00560   1.39367
 115        7PY         0.00767  -0.01631  -0.01491  -0.00670   1.38940
 116        7PZ        -0.00941   0.01874   0.01480   0.01026   0.01403
 117        8PX        -0.00191   0.00458   0.00156  -0.47639   0.00255
 118        8PY        -0.00258   0.00571   0.00494   0.00257  -0.47471
 119        8PZ         0.00309  -0.00645  -0.00458  -0.00392  -0.00534
 120        9PX        -0.00991   0.01788   0.01150  -0.02596   0.00862
 121        9PY        -0.01324   0.02246   0.02379   0.00843  -0.02076
 122        9PZ         0.01674  -0.02649  -0.02565  -0.01309  -0.01809
 123       10PX        -0.00542   0.01921  -0.00477  -0.25610   0.01604
 124       10PY        -0.00780   0.02294   0.01383   0.01673  -0.24463
 125       10PZ         0.00662  -0.02121  -0.00035  -0.02500  -0.03360
 126       11PX        -0.00716   0.01838  -0.00024  -0.13586   0.01430
 127       11PY        -0.00765   0.02089   0.00938   0.01278  -0.12495
 128       11PZ         0.00952  -0.02462  -0.00020  -0.02012  -0.03095
                         116       117       118       119       120
 116        7PZ         1.37859
 117        8PX        -0.00388   0.16300
 118        8PY        -0.00532  -0.00097   0.16234
 119        8PZ        -0.47063   0.00148   0.00202   0.16081
 120        9PX        -0.01343   0.01337  -0.00327   0.00507   0.12941
 121        9PY        -0.01827  -0.00317   0.01136   0.00687  -0.00991
 122        9PZ        -0.00640   0.00489   0.00677   0.00600   0.01563
 123       10PX        -0.02351   0.09743  -0.00605   0.00881   0.28570
 124       10PY        -0.03260  -0.00624   0.09299   0.01219  -0.02180
 125       10PZ        -0.22139   0.00927   0.01251   0.08441   0.03336
 126       11PX        -0.02261   0.05169  -0.00540   0.00852   0.15278
 127       11PY        -0.03096  -0.00480   0.04751   0.01166  -0.01550
 128       11PZ        -0.09584   0.00752   0.01159   0.03662   0.02455
                         121       122       123       124       125
 121        9PY         0.12363
 122        9PZ         0.02149   0.10637
 123       10PX        -0.02057   0.03076   0.66268
 124       10PY         0.27175   0.04290  -0.04057   0.63113
 125       10PZ         0.04465   0.23963   0.05795   0.07923   0.58215
 126       11PX        -0.01697   0.02685   0.35256  -0.03619   0.05661
 127       11PY         0.14009   0.03706  -0.03168   0.32324   0.07701
 128       11PZ         0.03744   0.10514   0.04795   0.07466   0.25556
                         126       127       128
 126       11PX         0.19405
 127       11PY        -0.02283   0.17358
 128       11PZ         0.03339   0.05216   0.12081
    Full Mulliken population analysis:
                           1         2         3         4         5
   1 1   Si 1S          0.37766
   2        2S          0.45194   1.03282
   3        3S         -0.02673  -0.18709   0.63473
   4        4S         -0.01640  -0.12282   0.59437   0.81275
   5        5S          0.00051   0.00434  -0.03983  -0.13949   0.58237
   6        6S          0.00030   0.00259  -0.02153  -0.06069   0.20908
   7        7PX         0.00000   0.00000   0.00000   0.00000   0.00000
   8        7PY         0.00000   0.00000   0.00000   0.00000   0.00000
   9        7PZ         0.00000   0.00000   0.00000   0.00000   0.00000
  10        8PX         0.00000   0.00000   0.00000   0.00000   0.00000
  11        8PY         0.00000   0.00000   0.00000   0.00000   0.00000
  12        8PZ         0.00000   0.00000   0.00000   0.00000   0.00000
  13        9PX         0.00000   0.00000   0.00000   0.00000   0.00000
  14        9PY         0.00000   0.00000   0.00000   0.00000   0.00000
  15        9PZ         0.00000   0.00000   0.00000   0.00000   0.00000
  16       10PX         0.00000   0.00000   0.00000   0.00000   0.00000
  17       10PY         0.00000   0.00000   0.00000   0.00000   0.00000
  18       10PZ         0.00000   0.00000   0.00000   0.00000   0.00000
  19       11PX         0.00000   0.00000   0.00000   0.00000   0.00000
  20       11PY         0.00000   0.00000   0.00000   0.00000   0.00000
  21       11PZ         0.00000   0.00000   0.00000   0.00000   0.00000
  22 2   H  1S          0.00000   0.00000  -0.00002  -0.00027   0.01095
  23        2S          0.00002   0.00021  -0.00198  -0.00712   0.05108
  24        3S          0.00001   0.00005  -0.00048  -0.00196   0.01643
  25        4PX         0.00000   0.00000  -0.00002  -0.00009   0.00056
  26        4PY         0.00000   0.00001  -0.00014  -0.00069   0.00441
  27        4PZ         0.00000   0.00000   0.00000   0.00000   0.00000
  28 3   H  1S          0.00000   0.00000  -0.00002  -0.00026   0.00997
  29        2S          0.00002   0.00019  -0.00178  -0.00634   0.04091
  30        3S         -0.00000  -0.00005   0.00028   0.00014   0.00836
  31        4PX         0.00000   0.00000  -0.00001  -0.00007   0.00039
  32        4PY         0.00000   0.00000  -0.00003  -0.00016   0.00091
  33        4PZ         0.00000   0.00001  -0.00009  -0.00044   0.00255
  34 4   H  1S          0.00000   0.00000  -0.00002  -0.00026   0.00998
  35        2S          0.00002   0.00019  -0.00179  -0.00634   0.04093
  36        3S         -0.00000  -0.00005   0.00028   0.00014   0.00836
  37        4PX         0.00000   0.00001  -0.00013  -0.00067   0.00386
  38        4PY         0.00000   0.00000  -0.00000  -0.00000   0.00000
  39        4PZ         0.00000   0.00000   0.00000   0.00000   0.00000
  40 5   O  1S         -0.00000  -0.00000   0.00000  -0.00000   0.00001
  41        2S          0.00000   0.00000  -0.00000  -0.00000   0.00002
  42        2PX         0.00000   0.00000  -0.00000  -0.00000   0.00016
  43        2PY         0.00000   0.00000  -0.00000  -0.00000   0.00043
  44        2PZ         0.00000   0.00000  -0.00000  -0.00000   0.00109
  45        3S          0.00000  -0.00000   0.00000   0.00000  -0.00075
  46        3PX         0.00000   0.00000  -0.00000  -0.00003   0.00114
  47        3PY         0.00000   0.00000  -0.00000  -0.00007   0.00335
  48        3PZ         0.00000   0.00000  -0.00001  -0.00019   0.00788
  49        4S         -0.00000  -0.00003   0.00027   0.00116  -0.01279
  50        4PX         0.00000   0.00002  -0.00021  -0.00071   0.00363
  51        4PY         0.00000   0.00002  -0.00018  -0.00112   0.00870
  52        4PZ         0.00001   0.00012  -0.00103  -0.00395   0.02319
  53 6   P  1S          0.00000   0.00000   0.00000   0.00000   0.00000
  54        2S          0.00000   0.00000   0.00000   0.00000   0.00000
  55        3S          0.00000   0.00000   0.00000  -0.00000  -0.00000
  56        4S          0.00000   0.00000  -0.00000  -0.00000  -0.00000
  57        5S         -0.00000  -0.00000   0.00000   0.00000  -0.00003
  58        6S         -0.00000  -0.00000   0.00003   0.00005   0.00153
  59        7PX         0.00000   0.00000   0.00000   0.00000  -0.00000
  60        7PY         0.00000   0.00000   0.00000  -0.00000   0.00000
  61        7PZ         0.00000   0.00000   0.00000  -0.00000   0.00000
  62        8PX        -0.00000  -0.00000   0.00000   0.00000  -0.00000
  63        8PY         0.00000   0.00000  -0.00000  -0.00000   0.00001
  64        8PZ         0.00000   0.00000  -0.00000  -0.00000   0.00000
  65        9PX         0.00000   0.00000  -0.00000  -0.00000   0.00000
  66        9PY        -0.00000  -0.00000   0.00000   0.00000  -0.00012
  67        9PZ        -0.00000  -0.00000   0.00000   0.00000  -0.00003
  68       10PX         0.00000   0.00000  -0.00000  -0.00000   0.00000
  69       10PY        -0.00000  -0.00000   0.00000   0.00003  -0.00106
  70       10PZ        -0.00000  -0.00000   0.00000   0.00000  -0.00027
  71       11PX        -0.00000  -0.00000   0.00000   0.00000  -0.00002
  72       11PY        -0.00000  -0.00001   0.00006  -0.00021   0.00546
  73       11PZ        -0.00000  -0.00000   0.00003   0.00003   0.00068
  74 7   O  1S          0.00000   0.00000   0.00000   0.00000   0.00000
  75        2S          0.00000   0.00000   0.00000   0.00000   0.00000
  76        2PX         0.00000   0.00000   0.00000   0.00000  -0.00000
  77        2PY         0.00000   0.00000   0.00000   0.00000   0.00000
  78        2PZ         0.00000   0.00000   0.00000   0.00000   0.00000
  79        3S         -0.00000   0.00000   0.00000   0.00000  -0.00000
  80        3PX        -0.00000   0.00000   0.00000   0.00000  -0.00000
  81        3PY         0.00000   0.00000  -0.00000  -0.00000   0.00000
  82        3PZ         0.00000   0.00000  -0.00000  -0.00000   0.00000
  83        4S          0.00000   0.00000  -0.00000  -0.00000  -0.00000
  84        4PX        -0.00000  -0.00000   0.00000   0.00000  -0.00000
  85        4PY         0.00000   0.00000  -0.00000  -0.00000   0.00002
  86        4PZ         0.00000   0.00000  -0.00000  -0.00000   0.00000
  87 8   Cl 1S          0.00000   0.00000   0.00000   0.00000  -0.00000
  88        2S          0.00000   0.00000   0.00000   0.00000  -0.00000
  89        3S          0.00000   0.00000   0.00000  -0.00000   0.00000
  90        4S          0.00000   0.00000   0.00000  -0.00000   0.00000
  91        5S         -0.00000  -0.00000   0.00000   0.00000  -0.00000
  92        6S         -0.00000  -0.00000   0.00000   0.00000  -0.00005
  93        7PX         0.00000   0.00000   0.00000  -0.00000  -0.00000
  94        7PY         0.00000   0.00000   0.00000  -0.00000   0.00000
  95        7PZ         0.00000   0.00000   0.00000  -0.00000   0.00000
  96        8PX         0.00000   0.00000   0.00000   0.00000   0.00000
  97        8PY         0.00000   0.00000   0.00000   0.00000  -0.00000
  98        8PZ         0.00000   0.00000   0.00000   0.00000  -0.00000
  99        9PX        -0.00000  -0.00000   0.00000   0.00000   0.00000
 100        9PY        -0.00000  -0.00000   0.00000   0.00000  -0.00000
 101        9PZ        -0.00000  -0.00000   0.00000   0.00000  -0.00000
 102       10PX        -0.00000  -0.00000   0.00000   0.00000   0.00000
 103       10PY        -0.00000  -0.00000   0.00000   0.00000  -0.00009
 104       10PZ        -0.00000  -0.00000   0.00000   0.00000  -0.00004
 105       11PX        -0.00000  -0.00000   0.00001   0.00002  -0.00002
 106       11PY        -0.00000  -0.00000   0.00002   0.00008  -0.00133
 107       11PZ        -0.00000  -0.00000   0.00001   0.00003  -0.00045
 108 9   Cl 1S          0.00000   0.00000   0.00000   0.00000  -0.00000
 109        2S          0.00000   0.00000   0.00000   0.00000  -0.00000
 110        3S          0.00000   0.00000   0.00000  -0.00000   0.00000
 111        4S          0.00000   0.00000   0.00000  -0.00000   0.00000
 112        5S         -0.00000  -0.00000   0.00000   0.00000  -0.00000
 113        6S         -0.00000  -0.00000   0.00000   0.00000  -0.00005
 114        7PX         0.00000   0.00000   0.00000  -0.00000   0.00000
 115        7PY         0.00000   0.00000   0.00000  -0.00000   0.00000
 116        7PZ         0.00000   0.00000   0.00000   0.00000  -0.00000
 117        8PX         0.00000   0.00000   0.00000   0.00000  -0.00000
 118        8PY         0.00000   0.00000   0.00000   0.00000  -0.00000
 119        8PZ         0.00000   0.00000   0.00000  -0.00000   0.00000
 120        9PX        -0.00000  -0.00000   0.00000   0.00000  -0.00000
 121        9PY        -0.00000  -0.00000   0.00000   0.00000  -0.00000
 122        9PZ         0.00000   0.00000  -0.00000  -0.00000   0.00000
 123       10PX        -0.00000  -0.00000   0.00000   0.00000  -0.00000
 124       10PY        -0.00000  -0.00000   0.00000   0.00000  -0.00012
 125       10PZ         0.00000   0.00000  -0.00000  -0.00000   0.00000
 126       11PX        -0.00000  -0.00000   0.00000   0.00000   0.00000
 127       11PY        -0.00000  -0.00000   0.00003   0.00013  -0.00186
 128       11PZ         0.00000   0.00000  -0.00000  -0.00000   0.00005
                           6         7         8         9        10
   6        6S          0.17307
   7        7PX         0.00000   0.33739
   8        7PY         0.00000   0.00000   0.33703
   9        7PZ         0.00000   0.00000   0.00000   0.33442
  10        8PX         0.00000   0.32376   0.00000   0.00000   0.98184
  11        8PY         0.00000   0.00000   0.32340   0.00000   0.00000
  12        8PZ         0.00000   0.00000   0.00000   0.32114   0.00000
  13        9PX         0.00000   0.00250   0.00000   0.00000   0.02027
  14        9PY         0.00000   0.00000   0.00270   0.00000   0.00000
  15        9PZ         0.00000   0.00000   0.00000   0.00315   0.00000
  16       10PX         0.00000  -0.00146   0.00000   0.00000  -0.01633
  17       10PY         0.00000   0.00000  -0.00154   0.00000   0.00000
  18       10PZ         0.00000   0.00000   0.00000  -0.00106   0.00000
  19       11PX         0.00000  -0.00005   0.00000   0.00000  -0.00061
  20       11PY         0.00000   0.00000  -0.00009   0.00000   0.00000
  21       11PZ         0.00000   0.00000   0.00000  -0.00001   0.00000
  22 2   H  1S          0.00716  -0.00000  -0.00000   0.00000  -0.00005
  23        2S          0.02979  -0.00006  -0.00039   0.00000  -0.00080
  24        3S          0.01147  -0.00002  -0.00012   0.00000  -0.00026
  25        4PX         0.00020  -0.00000  -0.00001   0.00000   0.00000
  26        4PY         0.00126  -0.00001  -0.00003   0.00000  -0.00011
  27        4PZ         0.00000   0.00000   0.00000  -0.00000   0.00000
  28 3   H  1S          0.01001  -0.00000  -0.00000  -0.00000  -0.00005
  29        2S          0.03876  -0.00006  -0.00011  -0.00029  -0.00078
  30        3S          0.01061  -0.00003  -0.00004  -0.00010  -0.00033
  31        4PX         0.00020  -0.00000  -0.00000  -0.00000   0.00000
  32        4PY         0.00040  -0.00000  -0.00000  -0.00001  -0.00003
  33        4PZ         0.00105  -0.00000  -0.00001  -0.00002  -0.00009
  34 4   H  1S          0.01001  -0.00001  -0.00000   0.00000  -0.00039
  35        2S          0.03878  -0.00046  -0.00000   0.00000  -0.00605
  36        3S          0.01063  -0.00017   0.00000   0.00000  -0.00209
  37        4PX         0.00166  -0.00005  -0.00000   0.00000  -0.00085
  38        4PY         0.00000   0.00000  -0.00000   0.00000   0.00000
  39        4PZ         0.00000   0.00000   0.00000  -0.00000   0.00000
  40 5   O  1S          0.00046   0.00000   0.00000   0.00000   0.00000
  41        2S          0.00075  -0.00000  -0.00000  -0.00000   0.00000
  42        2PX         0.00004  -0.00000  -0.00000  -0.00000  -0.00000
  43        2PY        -0.00023  -0.00000  -0.00000  -0.00000  -0.00000
  44        2PZ        -0.00008  -0.00000  -0.00000  -0.00000  -0.00000
  45        3S         -0.01256  -0.00000  -0.00000  -0.00000  -0.00001
  46        3PX         0.00019  -0.00000  -0.00000  -0.00000  -0.00000
  47        3PY        -0.00127  -0.00000  -0.00000  -0.00000  -0.00001
  48        3PZ        -0.00050  -0.00000  -0.00000  -0.00000  -0.00005
  49        4S         -0.03120  -0.00001  -0.00001  -0.00004  -0.00012
  50        4PX         0.00011   0.00000  -0.00002  -0.00005   0.00004
  51        4PY        -0.00747  -0.00001  -0.00000  -0.00009  -0.00019
  52        4PZ        -0.00692  -0.00005  -0.00010  -0.00020  -0.00067
  53 6   P  1S         -0.00000   0.00000   0.00000   0.00000   0.00000
  54        2S         -0.00002   0.00000   0.00000   0.00000   0.00000
  55        3S          0.00014   0.00000   0.00000   0.00000   0.00000
  56        4S          0.00055   0.00000  -0.00000  -0.00000  -0.00000
  57        5S         -0.00322  -0.00000   0.00000   0.00000   0.00000
  58        6S         -0.00670  -0.00000   0.00001  -0.00000  -0.00000
  59        7PX        -0.00000   0.00000   0.00000   0.00000  -0.00000
  60        7PY        -0.00000   0.00000   0.00000   0.00000  -0.00000
  61        7PZ        -0.00000   0.00000   0.00000   0.00000   0.00000
  62        8PX        -0.00000  -0.00000   0.00000   0.00000  -0.00000
  63        8PY        -0.00004  -0.00000  -0.00000  -0.00000  -0.00000
  64        8PZ        -0.00003   0.00000   0.00000   0.00000   0.00000
  65        9PX         0.00000   0.00000  -0.00000  -0.00000   0.00000
  66        9PY         0.00030   0.00000   0.00000   0.00000   0.00000
  67        9PZ         0.00015   0.00000  -0.00000  -0.00000   0.00000
  68       10PX         0.00003   0.00000  -0.00000  -0.00000   0.00000
  69       10PY         0.00263   0.00000   0.00000   0.00000   0.00000
  70       10PZ         0.00253   0.00000  -0.00000  -0.00000   0.00000
  71       11PX         0.00006  -0.00000   0.00000   0.00000  -0.00001
  72       11PY        -0.01068  -0.00000  -0.00000  -0.00001  -0.00000
  73       11PZ        -0.00018  -0.00000   0.00000  -0.00000  -0.00000
  74 7   O  1S         -0.00000   0.00000   0.00000   0.00000   0.00000
  75        2S         -0.00000   0.00000   0.00000   0.00000   0.00000
  76        2PX         0.00000   0.00000   0.00000   0.00000   0.00000
  77        2PY        -0.00001   0.00000   0.00000   0.00000   0.00000
  78        2PZ        -0.00000   0.00000   0.00000   0.00000   0.00000
  79        3S          0.00003   0.00000  -0.00000  -0.00000   0.00000
  80        3PX         0.00000  -0.00000   0.00000   0.00000  -0.00000
  81        3PY        -0.00006  -0.00000  -0.00000  -0.00000  -0.00000
  82        3PZ        -0.00001  -0.00000  -0.00000  -0.00000  -0.00000
  83        4S          0.00026  -0.00000  -0.00000  -0.00000  -0.00000
  84        4PX         0.00003   0.00000  -0.00000   0.00000   0.00000
  85        4PY        -0.00047  -0.00000  -0.00000  -0.00000  -0.00000
  86        4PZ        -0.00001  -0.00000  -0.00000  -0.00000  -0.00000
  87 8   Cl 1S          0.00000   0.00000   0.00000   0.00000   0.00000
  88        2S          0.00000   0.00000   0.00000   0.00000   0.00000
  89        3S         -0.00000   0.00000   0.00000   0.00000  -0.00000
  90        4S         -0.00000   0.00000   0.00000   0.00000  -0.00000
  91        5S         -0.00005   0.00000   0.00000   0.00000   0.00000
  92        6S         -0.00030   0.00000   0.00000  -0.00000   0.00000
  93        7PX         0.00001   0.00000   0.00000   0.00000  -0.00000
  94        7PY         0.00000   0.00000   0.00000   0.00000  -0.00000
  95        7PZ        -0.00000   0.00000   0.00000   0.00000  -0.00000
  96        8PX        -0.00000   0.00000   0.00000   0.00000   0.00000
  97        8PY        -0.00000   0.00000   0.00000   0.00000   0.00000
  98        8PZ         0.00000   0.00000   0.00000   0.00000   0.00000
  99        9PX        -0.00003   0.00000   0.00000   0.00000   0.00000
 100        9PY        -0.00001   0.00000   0.00000  -0.00000   0.00000
 101        9PZ         0.00002   0.00000   0.00000   0.00000   0.00000
 102       10PX        -0.00043   0.00000   0.00000   0.00000   0.00000
 103       10PY        -0.00009   0.00000  -0.00000  -0.00000   0.00000
 104       10PZ         0.00017   0.00000   0.00000   0.00000   0.00000
 105       11PX        -0.00058  -0.00000   0.00000   0.00000  -0.00001
 106       11PY         0.00019   0.00000   0.00000  -0.00000   0.00003
 107       11PZ         0.00020   0.00000   0.00000   0.00000   0.00001
 108 9   Cl 1S          0.00000   0.00000   0.00000   0.00000   0.00000
 109        2S          0.00000   0.00000   0.00000   0.00000   0.00000
 110        3S         -0.00000   0.00000   0.00000   0.00000  -0.00000
 111        4S         -0.00000   0.00000   0.00000   0.00000  -0.00000
 112        5S         -0.00005   0.00000   0.00000   0.00000   0.00000
 113        6S         -0.00030   0.00000   0.00000   0.00000   0.00000
 114        7PX        -0.00000   0.00000   0.00000   0.00000  -0.00000
 115        7PY         0.00000   0.00000   0.00000   0.00000  -0.00000
 116        7PZ         0.00000   0.00000   0.00000   0.00000   0.00000
 117        8PX         0.00000   0.00000   0.00000   0.00000   0.00000
 118        8PY        -0.00000   0.00000   0.00000   0.00000   0.00000
 119        8PZ        -0.00000   0.00000   0.00000   0.00000  -0.00000
 120        9PX         0.00000  -0.00000   0.00000  -0.00000   0.00000
 121        9PY        -0.00003   0.00000   0.00000   0.00000   0.00000
 122        9PZ        -0.00000  -0.00000  -0.00000   0.00000  -0.00000
 123       10PX         0.00003   0.00000   0.00000  -0.00000   0.00000
 124       10PY        -0.00034   0.00000   0.00000   0.00000   0.00000
 125       10PZ        -0.00004  -0.00000  -0.00000   0.00000  -0.00000
 126       11PX        -0.00002   0.00000   0.00000  -0.00000   0.00000
 127       11PY        -0.00014   0.00000   0.00000   0.00000   0.00000
 128       11PZ        -0.00006  -0.00000  -0.00000   0.00000  -0.00000
                          11        12        13        14        15
  11        8PY         0.98073
  12        8PZ         0.00000   0.97466
  13        9PX         0.00000   0.00000   0.06901
  14        9PY         0.02198   0.00000   0.00000   0.06441
  15        9PZ         0.00000   0.02554   0.00000   0.00000   0.05710
  16       10PX         0.00000   0.00000   0.05975   0.00000   0.00000
  17       10PY        -0.01716   0.00000   0.00000   0.06039   0.00000
  18       10PZ         0.00000  -0.01188   0.00000   0.00000   0.03929
  19       11PX         0.00000   0.00000   0.00568   0.00000   0.00000
  20       11PY        -0.00108   0.00000   0.00000   0.00884   0.00000
  21       11PZ         0.00000  -0.00013   0.00000   0.00000   0.00294
  22 2   H  1S         -0.00034   0.00000   0.00110   0.00763   0.00000
  23        2S         -0.00519   0.00000   0.00523   0.03371   0.00000
  24        3S         -0.00152   0.00000   0.00158   0.00886   0.00000
  25        4PX        -0.00010   0.00000  -0.00002   0.00063   0.00000
  26        4PY        -0.00060   0.00000   0.00076   0.00337   0.00000
  27        4PZ         0.00000  -0.00001   0.00000   0.00000   0.00013
  28 3   H  1S         -0.00010  -0.00025   0.00108   0.00215   0.00556
  29        2S         -0.00150  -0.00378   0.00503   0.00962   0.02485
  30        3S         -0.00051  -0.00125   0.00211   0.00339   0.00769
  31        4PX        -0.00003  -0.00008  -0.00001   0.00019   0.00051
  32        4PY        -0.00002  -0.00013   0.00018   0.00001   0.00089
  33        4PZ        -0.00016  -0.00033   0.00058   0.00104   0.00177
  34 4   H  1S         -0.00000   0.00000   0.00879   0.00000   0.00000
  35        2S         -0.00000   0.00000   0.03950   0.00000   0.00000
  36        3S          0.00000   0.00000   0.01318   0.00000   0.00000
  37        4PX        -0.00000   0.00000   0.00489   0.00000   0.00000
  38        4PY        -0.00001   0.00000  -0.00000   0.00012   0.00000
  39        4PZ         0.00000  -0.00001   0.00000   0.00000   0.00014
  40 5   O  1S          0.00000   0.00000  -0.00000  -0.00001  -0.00002
  41        2S          0.00000   0.00000  -0.00000  -0.00001  -0.00003
  42        2PX        -0.00000  -0.00000   0.00000   0.00003   0.00011
  43        2PY        -0.00000  -0.00000   0.00004   0.00004   0.00023
  44        2PZ        -0.00000  -0.00000   0.00012   0.00019   0.00057
  45        3S         -0.00001  -0.00003   0.00018   0.00048   0.00120
  46        3PX        -0.00001  -0.00005  -0.00003   0.00027   0.00106
  47        3PY        -0.00001  -0.00009   0.00037   0.00026   0.00220
  48        3PZ        -0.00009  -0.00021   0.00116   0.00178   0.00499
  49        4S         -0.00021  -0.00067   0.00080   0.00194   0.00514
  50        4PX        -0.00022  -0.00069  -0.00099   0.00100   0.00380
  51        4PY        -0.00004  -0.00117   0.00123  -0.00022   0.00676
  52        4PZ        -0.00126  -0.00256   0.00402   0.00584   0.01428
  53 6   P  1S          0.00000   0.00000  -0.00000  -0.00000  -0.00000
  54        2S          0.00000   0.00000  -0.00000  -0.00000  -0.00000
  55        3S         -0.00000  -0.00000   0.00000   0.00000   0.00000
  56        4S         -0.00000  -0.00000   0.00000   0.00000   0.00000
  57        5S          0.00000   0.00000   0.00000  -0.00007  -0.00002
  58        6S          0.00011  -0.00000   0.00001  -0.00085   0.00004
  59        7PX         0.00000   0.00000   0.00000  -0.00000  -0.00000
  60        7PY        -0.00000  -0.00000   0.00000   0.00000   0.00000
  61        7PZ         0.00000   0.00000  -0.00000   0.00000  -0.00000
  62        8PX         0.00000   0.00000   0.00000  -0.00000  -0.00000
  63        8PY        -0.00000  -0.00000   0.00000   0.00000   0.00000
  64        8PZ         0.00000   0.00000  -0.00000   0.00000  -0.00000
  65        9PX        -0.00000  -0.00000  -0.00000   0.00000   0.00000
  66        9PY         0.00000   0.00000  -0.00000  -0.00001  -0.00001
  67        9PZ         0.00000  -0.00000  -0.00000  -0.00000   0.00000
  68       10PX        -0.00000  -0.00000  -0.00005   0.00001   0.00000
  69       10PY         0.00001   0.00002   0.00000  -0.00040  -0.00027
  70       10PZ        -0.00001  -0.00001   0.00000  -0.00000   0.00009
  71       11PX         0.00000   0.00000  -0.00008  -0.00000  -0.00000
  72       11PY        -0.00002  -0.00011   0.00001   0.00032   0.00067
  73       11PZ         0.00001  -0.00000   0.00000  -0.00005  -0.00001
  74 7   O  1S          0.00000   0.00000  -0.00000   0.00000  -0.00000
  75        2S          0.00000   0.00000  -0.00000   0.00000  -0.00000
  76        2PX         0.00000   0.00000   0.00000  -0.00000  -0.00000
  77        2PY         0.00000   0.00000   0.00000   0.00000   0.00000
  78        2PZ         0.00000   0.00000   0.00000   0.00000   0.00000
  79        3S         -0.00000  -0.00000   0.00000  -0.00000  -0.00000
  80        3PX         0.00000   0.00000  -0.00000  -0.00000  -0.00000
  81        3PY        -0.00000  -0.00000   0.00000   0.00000   0.00000
  82        3PZ        -0.00000  -0.00000   0.00000   0.00000   0.00000
  83        4S         -0.00000  -0.00000   0.00000   0.00000   0.00000
  84        4PX        -0.00000   0.00000  -0.00000   0.00000  -0.00000
  85        4PY        -0.00000  -0.00000   0.00000   0.00000   0.00000
  86        4PZ        -0.00000  -0.00000   0.00000   0.00000   0.00000
  87 8   Cl 1S          0.00000   0.00000  -0.00000  -0.00000  -0.00000
  88        2S          0.00000   0.00000  -0.00000  -0.00000  -0.00000
  89        3S         -0.00000  -0.00000   0.00000   0.00000   0.00000
  90        4S         -0.00000  -0.00000   0.00000   0.00000   0.00000
  91        5S          0.00000   0.00000  -0.00000  -0.00000  -0.00000
  92        6S          0.00000  -0.00000  -0.00000  -0.00001  -0.00000
  93        7PX        -0.00000  -0.00000   0.00000   0.00000   0.00000
  94        7PY         0.00000   0.00000   0.00000   0.00000   0.00000
  95        7PZ        -0.00000  -0.00000   0.00000   0.00000   0.00000
  96        8PX         0.00000   0.00000  -0.00000  -0.00000  -0.00000
  97        8PY        -0.00000  -0.00000  -0.00000  -0.00000  -0.00000
  98        8PZ         0.00000   0.00000  -0.00000  -0.00000  -0.00000
  99        9PX         0.00000   0.00000  -0.00000  -0.00000  -0.00000
 100        9PY         0.00000  -0.00000  -0.00000  -0.00000  -0.00000
 101        9PZ         0.00000   0.00000  -0.00000  -0.00000  -0.00000
 102       10PX         0.00000   0.00000  -0.00000  -0.00000  -0.00000
 103       10PY        -0.00000  -0.00000  -0.00001  -0.00000  -0.00000
 104       10PZ         0.00000   0.00000  -0.00000  -0.00000  -0.00000
 105       11PX         0.00000   0.00000   0.00006   0.00001  -0.00002
 106       11PY         0.00000  -0.00000  -0.00031  -0.00008  -0.00001
 107       11PZ         0.00000   0.00000  -0.00008  -0.00003  -0.00000
 108 9   Cl 1S          0.00000   0.00000  -0.00000  -0.00000  -0.00000
 109        2S          0.00000   0.00000  -0.00000  -0.00000  -0.00000
 110        3S         -0.00000  -0.00000   0.00000   0.00000   0.00000
 111        4S         -0.00000  -0.00000   0.00000   0.00000   0.00000
 112        5S          0.00000   0.00000  -0.00000  -0.00000  -0.00000
 113        6S          0.00000   0.00000   0.00000  -0.00001  -0.00000
 114        7PX        -0.00000   0.00000   0.00000   0.00000  -0.00000
 115        7PY        -0.00000  -0.00000   0.00000   0.00000   0.00000
 116        7PZ         0.00000  -0.00000  -0.00000  -0.00000   0.00000
 117        8PX         0.00000  -0.00000  -0.00000  -0.00000   0.00000
 118        8PY         0.00000   0.00000  -0.00000  -0.00000  -0.00000
 119        8PZ        -0.00000   0.00000   0.00000   0.00000  -0.00000
 120        9PX         0.00000  -0.00000  -0.00000  -0.00000   0.00000
 121        9PY         0.00000   0.00000  -0.00000  -0.00000  -0.00000
 122        9PZ        -0.00000   0.00000   0.00000   0.00000  -0.00000
 123       10PX         0.00000  -0.00000   0.00000  -0.00000   0.00000
 124       10PY         0.00000   0.00000  -0.00000  -0.00001  -0.00000
 125       10PZ        -0.00000   0.00000   0.00000   0.00000  -0.00000
 126       11PX         0.00000  -0.00000   0.00000   0.00002   0.00000
 127       11PY         0.00003   0.00000  -0.00004  -0.00039  -0.00002
 128       11PZ        -0.00000   0.00000   0.00000   0.00002  -0.00006
                          16        17        18        19        20
  16       10PX         0.12046
  17       10PY         0.00000   0.13631
  18       10PZ         0.00000   0.00000   0.06914
  19       11PX         0.01924   0.00000   0.00000   0.01250
  20       11PY         0.00000   0.03087   0.00000   0.00000   0.03367
  21       11PZ         0.00000   0.00000   0.00621   0.00000   0.00000
  22 2   H  1S          0.00343   0.02296   0.00000   0.00075   0.00600
  23        2S          0.01261   0.07941   0.00000   0.00334   0.02676
  24        3S          0.00444   0.02580   0.00000   0.00109   0.00428
  25        4PX        -0.00009   0.00075   0.00000  -0.00005   0.00008
  26        4PY         0.00094   0.00276   0.00000   0.00008  -0.00013
  27        4PZ         0.00000   0.00000   0.00028   0.00000   0.00000
  28 3   H  1S          0.00326   0.00721   0.01494   0.00010   0.00172
  29        2S          0.01218   0.02451   0.05257   0.00049   0.00637
  30        3S          0.00554   0.00836   0.02016   0.00024   0.00321
  31        4PX        -0.00009   0.00023   0.00054   0.00004   0.00003
  32        4PY         0.00022  -0.00027   0.00096   0.00000  -0.00010
  33        4PZ         0.00073   0.00145   0.00105   0.00001   0.00013
  34 4   H  1S          0.02541   0.00000   0.00000   0.00390   0.00000
  35        2S          0.08927   0.00000   0.00000   0.01555   0.00000
  36        3S          0.03407  -0.00000   0.00000   0.00522   0.00000
  37        4PX         0.00422   0.00000   0.00000  -0.00003   0.00000
  38        4PY        -0.00000   0.00030   0.00000  -0.00000   0.00008
  39        4PZ         0.00000   0.00000   0.00031   0.00000   0.00000
  40 5   O  1S         -0.00001   0.00014   0.00009  -0.00003  -0.00004
  41        2S         -0.00002   0.00024   0.00015  -0.00006  -0.00007
  42        2PX         0.00028   0.00023   0.00056   0.00023  -0.00001
  43        2PY         0.00010   0.00000   0.00106  -0.00002   0.00005
  44        2PZ         0.00044   0.00157   0.00086   0.00007   0.00009
  45        3S          0.00052  -0.00453  -0.00241   0.00088   0.00099
  46        3PX         0.00200   0.00126   0.00314   0.00145  -0.00004
  47        3PY         0.00061  -0.00002   0.00627  -0.00010   0.00025
  48        3PZ         0.00250   0.00888   0.00455   0.00039   0.00054
  49        4S          0.00010  -0.00708  -0.00664   0.00313   0.00347
  50        4PX         0.00807   0.00315   0.00773   0.00555  -0.00017
  51        4PY         0.00182  -0.00022   0.01632  -0.00053   0.00188
  52        4PZ         0.00641   0.02165   0.00875   0.00163   0.00147
  53 6   P  1S          0.00000  -0.00000  -0.00000   0.00000  -0.00002
  54        2S          0.00000  -0.00000  -0.00000   0.00000  -0.00016
  55        3S         -0.00000   0.00002   0.00000  -0.00000   0.00122
  56        4S         -0.00000   0.00008   0.00001  -0.00002   0.00460
  57        5S          0.00000  -0.00077  -0.00012   0.00009  -0.02254
  58        6S          0.00006  -0.00395   0.00192   0.00010  -0.03176
  59        7PX        -0.00000  -0.00000  -0.00000   0.00000   0.00000
  60        7PY         0.00000  -0.00000   0.00000   0.00000  -0.00001
  61        7PZ         0.00000  -0.00000  -0.00000   0.00000   0.00000
  62        8PX        -0.00000  -0.00000  -0.00000   0.00001   0.00000
  63        8PY         0.00000  -0.00002   0.00004   0.00000  -0.00010
  64        8PZ         0.00000  -0.00004  -0.00000   0.00000   0.00005
  65        9PX        -0.00000   0.00000   0.00000  -0.00008  -0.00001
  66        9PY        -0.00001   0.00007  -0.00037  -0.00001   0.00046
  67        9PZ        -0.00000   0.00017  -0.00001  -0.00000  -0.00034
  68       10PX         0.00020   0.00005   0.00001  -0.00122  -0.00004
  69       10PY        -0.00003   0.00263  -0.00032  -0.00008   0.00446
  70       10PZ        -0.00001   0.00432   0.00019  -0.00002  -0.00049
  71       11PX         0.00117  -0.00000  -0.00000  -0.00469   0.00003
  72       11PY         0.00006   0.00047   0.00472  -0.00001  -0.00167
  73       11PZ         0.00002   0.00099  -0.00016  -0.00002  -0.00259
  74 7   O  1S          0.00000  -0.00000   0.00000   0.00000  -0.00002
  75        2S          0.00000  -0.00000   0.00000   0.00000  -0.00003
  76        2PX        -0.00000  -0.00000  -0.00000  -0.00001   0.00000
  77        2PY         0.00000   0.00000   0.00000   0.00000  -0.00001
  78        2PZ         0.00000  -0.00000   0.00000  -0.00000  -0.00002
  79        3S         -0.00000   0.00000  -0.00000  -0.00003   0.00052
  80        3PX        -0.00000  -0.00000  -0.00000  -0.00007   0.00002
  81        3PY         0.00000   0.00000   0.00000   0.00000  -0.00008
  82        3PZ         0.00000  -0.00000   0.00000  -0.00002  -0.00012
  83        4S         -0.00000   0.00006   0.00001  -0.00015   0.00245
  84        4PX        -0.00000   0.00000  -0.00001  -0.00047   0.00019
  85        4PY         0.00002   0.00006   0.00013  -0.00001  -0.00018
  86        4PZ        -0.00000   0.00002   0.00002  -0.00013   0.00002
  87 8   Cl 1S         -0.00000   0.00000   0.00000   0.00000  -0.00000
  88        2S         -0.00000   0.00000   0.00000   0.00001  -0.00001
  89        3S          0.00000  -0.00000  -0.00000  -0.00004   0.00004
  90        4S          0.00000  -0.00000  -0.00000  -0.00012   0.00014
  91        5S         -0.00005   0.00000  -0.00000   0.00043  -0.00038
  92        6S         -0.00029  -0.00002  -0.00002   0.00255   0.00119
  93        7PX         0.00000   0.00000  -0.00000  -0.00000   0.00008
  94        7PY         0.00000  -0.00000  -0.00000   0.00002  -0.00004
  95        7PZ         0.00000   0.00000  -0.00000   0.00000  -0.00004
  96        8PX        -0.00000  -0.00000   0.00000   0.00000  -0.00002
  97        8PY        -0.00000   0.00000   0.00000  -0.00000   0.00001
  98        8PZ        -0.00000  -0.00000   0.00000  -0.00000   0.00001
  99        9PX        -0.00000  -0.00000   0.00000   0.00000  -0.00037
 100        9PY        -0.00002   0.00000   0.00000  -0.00009   0.00021
 101        9PZ        -0.00001  -0.00000   0.00000  -0.00001   0.00021
 102       10PX        -0.00009  -0.00006   0.00004   0.00009  -0.00294
 103       10PY        -0.00035   0.00009   0.00006  -0.00069   0.00147
 104       10PZ        -0.00012  -0.00001   0.00003  -0.00007   0.00156
 105       11PX         0.00005  -0.00017   0.00009   0.00014  -0.00184
 106       11PY        -0.00112  -0.00001   0.00016  -0.00104   0.00150
 107       11PZ        -0.00036  -0.00038   0.00003  -0.00010   0.00239
 108 9   Cl 1S         -0.00000   0.00000  -0.00000   0.00000  -0.00000
 109        2S         -0.00000   0.00000  -0.00000   0.00000  -0.00000
 110        3S          0.00000   0.00000   0.00000  -0.00001   0.00001
 111        4S          0.00000   0.00000   0.00000  -0.00004   0.00006
 112        5S         -0.00001  -0.00004  -0.00000   0.00013  -0.00007
 113        6S         -0.00004  -0.00028  -0.00002   0.00042   0.00385
 114        7PX         0.00000   0.00000   0.00000  -0.00000   0.00000
 115        7PY         0.00000   0.00000   0.00000   0.00002  -0.00001
 116        7PZ        -0.00000  -0.00000   0.00000  -0.00000   0.00001
 117        8PX        -0.00000  -0.00000  -0.00000   0.00000  -0.00000
 118        8PY        -0.00000  -0.00000  -0.00000  -0.00000   0.00000
 119        8PZ         0.00000  -0.00000  -0.00000   0.00000  -0.00000
 120        9PX        -0.00000  -0.00000  -0.00000   0.00001  -0.00001
 121        9PY        -0.00000  -0.00002  -0.00000  -0.00009   0.00007
 122        9PZ         0.00000   0.00000  -0.00000   0.00001  -0.00005
 123       10PX        -0.00001  -0.00003  -0.00000   0.00002  -0.00006
 124       10PY        -0.00003  -0.00027  -0.00005  -0.00064   0.00051
 125       10PZ         0.00000  -0.00000  -0.00002   0.00004  -0.00039
 126       11PX        -0.00022  -0.00010  -0.00000   0.00043   0.00037
 127       11PY         0.00007  -0.00112  -0.00012  -0.00073   0.00284
 128       11PZ        -0.00000   0.00004  -0.00029   0.00006  -0.00031
                          21        22        23        24        25
  21       11PZ         0.00796
  22 2   H  1S          0.00000   0.07068
  23        2S          0.00000   0.09814   0.27933
  24        3S          0.00000   0.01920   0.08081   0.05168
  25        4PX         0.00000   0.00000   0.00000   0.00000   0.00050
  26        4PY         0.00000   0.00000   0.00000   0.00000   0.00000
  27        4PZ         0.00001   0.00000   0.00000   0.00000   0.00000
  28 3   H  1S          0.00208  -0.00000  -0.00009  -0.00082   0.00000
  29        2S          0.00869  -0.00009  -0.00223  -0.00562   0.00000
  30        3S          0.00177  -0.00095  -0.00674  -0.00659   0.00000
  31        4PX         0.00003  -0.00000  -0.00000  -0.00000  -0.00000
  32        4PY         0.00005   0.00000  -0.00001  -0.00007   0.00000
  33        4PZ        -0.00011  -0.00000  -0.00006  -0.00013   0.00000
  34 4   H  1S          0.00000  -0.00000  -0.00009  -0.00082   0.00000
  35        2S          0.00000  -0.00009  -0.00223  -0.00563   0.00001
  36        3S          0.00000  -0.00095  -0.00674  -0.00660  -0.00000
  37        4PX         0.00000  -0.00000  -0.00011  -0.00025   0.00000
  38        4PY         0.00000   0.00000   0.00003   0.00005   0.00000
  39        4PZ         0.00004   0.00000   0.00000   0.00000   0.00000
  40 5   O  1S         -0.00018   0.00000   0.00000  -0.00001  -0.00000
  41        2S         -0.00030  -0.00000   0.00000  -0.00002  -0.00000
  42        2PX         0.00008  -0.00000   0.00000   0.00000  -0.00000
  43        2PY         0.00004  -0.00000  -0.00001  -0.00007   0.00000
  44        2PZ        -0.00000  -0.00000   0.00000   0.00001  -0.00000
  45        3S          0.00452  -0.00000  -0.00007   0.00024   0.00000
  46        3PX         0.00046  -0.00000   0.00000   0.00001  -0.00000
  47        3PY         0.00026  -0.00000  -0.00013  -0.00045   0.00000
  48        3PZ         0.00001  -0.00000   0.00001   0.00006  -0.00000
  49        4S          0.01601  -0.00005  -0.00134   0.00037   0.00000
  50        4PX         0.00200  -0.00000   0.00005   0.00005  -0.00000
  51        4PY         0.00001  -0.00013  -0.00251  -0.00249   0.00001
  52        4PZ         0.00012  -0.00006   0.00007   0.00014  -0.00000
  53 6   P  1S         -0.00000   0.00000   0.00000  -0.00000   0.00000
  54        2S         -0.00002   0.00000   0.00000  -0.00000   0.00000
  55        3S          0.00017   0.00000  -0.00000   0.00001  -0.00000
  56        4S          0.00066  -0.00000  -0.00000   0.00003  -0.00000
  57        5S         -0.00296   0.00000   0.00000  -0.00028   0.00000
  58        6S         -0.00512   0.00001   0.00019  -0.00128   0.00000
  59        7PX         0.00000   0.00000  -0.00000  -0.00000  -0.00000
  60        7PY         0.00000   0.00000  -0.00000  -0.00000  -0.00000
  61        7PZ         0.00000   0.00000  -0.00000   0.00000  -0.00000
  62        8PX         0.00000  -0.00000  -0.00000  -0.00000   0.00000
  63        8PY         0.00003  -0.00000  -0.00000  -0.00001  -0.00000
  64        8PZ         0.00000  -0.00000  -0.00000   0.00000  -0.00000
  65        9PX        -0.00000   0.00000   0.00000   0.00000  -0.00000
  66        9PY        -0.00009   0.00000   0.00000   0.00005   0.00000
  67        9PZ         0.00000   0.00000   0.00000  -0.00000   0.00000
  68       10PX        -0.00001   0.00000   0.00000   0.00003  -0.00000
  69       10PY        -0.00259   0.00000   0.00003   0.00084   0.00000
  70       10PZ         0.00012   0.00000   0.00001   0.00004   0.00000
  71       11PX        -0.00001  -0.00001  -0.00005  -0.00003   0.00000
  72       11PY        -0.00517  -0.00005  -0.00031  -0.00114  -0.00000
  73       11PZ        -0.00063   0.00002   0.00021  -0.00008   0.00000
  74 7   O  1S         -0.00000   0.00000  -0.00000  -0.00000   0.00000
  75        2S         -0.00000   0.00000  -0.00000  -0.00000   0.00000
  76        2PX        -0.00000   0.00000  -0.00000  -0.00000   0.00000
  77        2PY        -0.00004   0.00000  -0.00000  -0.00000   0.00000
  78        2PZ         0.00002   0.00000  -0.00000  -0.00000   0.00000
  79        3S          0.00003   0.00000   0.00000   0.00000  -0.00000
  80        3PX        -0.00001   0.00000  -0.00000  -0.00000   0.00000
  81        3PY        -0.00028  -0.00000  -0.00000  -0.00000   0.00000
  82        3PZ         0.00013  -0.00000  -0.00000  -0.00000   0.00000
  83        4S          0.00010  -0.00000   0.00000   0.00001  -0.00000
  84        4PX        -0.00003   0.00000   0.00000   0.00000   0.00000
  85        4PY        -0.00154  -0.00000  -0.00000  -0.00001   0.00000
  86        4PZ         0.00072  -0.00000  -0.00000  -0.00000   0.00000
  87 8   Cl 1S          0.00000   0.00000   0.00000  -0.00000  -0.00000
  88        2S          0.00000   0.00000   0.00000  -0.00000   0.00000
  89        3S         -0.00000   0.00000  -0.00000   0.00000   0.00000
  90        4S         -0.00001   0.00000  -0.00000   0.00000   0.00000
  91        5S          0.00005   0.00000   0.00000   0.00000  -0.00000
  92        6S          0.00067  -0.00000  -0.00000   0.00003  -0.00000
  93        7PX         0.00002   0.00000   0.00000   0.00000   0.00000
  94        7PY         0.00001   0.00000  -0.00000  -0.00000   0.00000
  95        7PZ         0.00000   0.00000  -0.00000  -0.00000  -0.00000
  96        8PX        -0.00000   0.00000  -0.00000  -0.00000  -0.00000
  97        8PY        -0.00000   0.00000   0.00000   0.00000  -0.00000
  98        8PZ        -0.00000   0.00000   0.00000   0.00000   0.00000
  99        9PX        -0.00007  -0.00000  -0.00000  -0.00000  -0.00000
 100        9PY        -0.00004   0.00000   0.00000   0.00000  -0.00000
 101        9PZ         0.00000   0.00000   0.00000   0.00000   0.00000
 102       10PX        -0.00050  -0.00000  -0.00000  -0.00003  -0.00000
 103       10PY        -0.00032   0.00000   0.00000   0.00004  -0.00000
 104       10PZ         0.00002   0.00000   0.00000   0.00002   0.00000
 105       11PX        -0.00029  -0.00000  -0.00002  -0.00015  -0.00000
 106       11PY         0.00011   0.00000   0.00003   0.00039  -0.00000
 107       11PZ         0.00016   0.00000   0.00001   0.00018  -0.00000
 108 9   Cl 1S          0.00000   0.00000   0.00000  -0.00000  -0.00000
 109        2S          0.00000   0.00000   0.00000  -0.00000   0.00000
 110        3S         -0.00000   0.00000  -0.00000   0.00000   0.00000
 111        4S         -0.00001   0.00000  -0.00000   0.00000   0.00000
 112        5S          0.00003   0.00000   0.00000   0.00000  -0.00000
 113        6S          0.00012  -0.00000  -0.00000   0.00003   0.00000
 114        7PX        -0.00000   0.00000  -0.00000  -0.00000  -0.00000
 115        7PY         0.00000   0.00000  -0.00000  -0.00000   0.00000
 116        7PZ         0.00002   0.00000   0.00000   0.00000  -0.00000
 117        8PX         0.00000   0.00000   0.00000   0.00000   0.00000
 118        8PY        -0.00000   0.00000   0.00000   0.00000  -0.00000
 119        8PZ        -0.00000   0.00000  -0.00000  -0.00000   0.00000
 120        9PX         0.00000   0.00000   0.00000   0.00000   0.00000
 121        9PY        -0.00001   0.00000   0.00000   0.00000  -0.00000
 122        9PZ        -0.00010  -0.00000  -0.00000  -0.00000   0.00000
 123       10PX         0.00001   0.00000   0.00000   0.00000   0.00000
 124       10PY        -0.00003   0.00000   0.00000   0.00003  -0.00000
 125       10PZ        -0.00089  -0.00000  -0.00000  -0.00000   0.00000
 126       11PX         0.00002   0.00000  -0.00000   0.00001  -0.00000
 127       11PY        -0.00010   0.00000   0.00002   0.00044  -0.00000
 128       11PZ        -0.00157  -0.00000  -0.00000  -0.00002   0.00000
                          26        27        28        29        30
  26        4PY         0.00351
  27        4PZ         0.00000   0.00005
  28 3   H  1S         -0.00000   0.00000   0.07138
  29        2S         -0.00009   0.00002   0.09862   0.27981
  30        3S         -0.00029   0.00005   0.02353   0.10379   0.07362
  31        4PX        -0.00000   0.00000   0.00000   0.00000   0.00000
  32        4PY         0.00000   0.00000   0.00000   0.00000   0.00000
  33        4PZ        -0.00000   0.00000   0.00000   0.00000   0.00000
  34 4   H  1S         -0.00000   0.00000  -0.00000  -0.00010  -0.00143
  35        2S         -0.00008   0.00000  -0.00010  -0.00263  -0.00960
  36        3S         -0.00024   0.00000  -0.00143  -0.00960  -0.01292
  37        4PX        -0.00000   0.00000  -0.00000  -0.00014  -0.00046
  38        4PY         0.00000   0.00000   0.00000   0.00001   0.00002
  39        4PZ         0.00000   0.00000   0.00000   0.00003   0.00005
  40 5   O  1S          0.00000  -0.00000   0.00000   0.00000  -0.00004
  41        2S          0.00000  -0.00000  -0.00000   0.00000  -0.00007
  42        2PX         0.00000  -0.00000   0.00000   0.00000   0.00001
  43        2PY        -0.00000   0.00000   0.00000   0.00000   0.00001
  44        2PZ         0.00000   0.00000  -0.00000  -0.00002  -0.00033
  45        3S         -0.00000   0.00000  -0.00000  -0.00000   0.00142
  46        3PX         0.00000  -0.00000   0.00000   0.00000   0.00005
  47        3PY        -0.00000   0.00000   0.00000   0.00000   0.00005
  48        3PZ         0.00000   0.00000  -0.00000  -0.00029  -0.00220
  49        4S         -0.00009   0.00000  -0.00003  -0.00057   0.00484
  50        4PX         0.00001  -0.00000   0.00000   0.00007   0.00030
  51        4PY        -0.00015   0.00004  -0.00000   0.00006   0.00019
  52        4PZ         0.00003   0.00002  -0.00034  -0.00620  -0.01141
  53 6   P  1S          0.00000   0.00000  -0.00000   0.00000  -0.00000
  54        2S          0.00000   0.00000  -0.00000   0.00000  -0.00000
  55        3S         -0.00000  -0.00000   0.00000  -0.00000   0.00002
  56        4S         -0.00000  -0.00000   0.00000  -0.00000   0.00007
  57        5S          0.00000   0.00000  -0.00000  -0.00001  -0.00062
  58        6S          0.00001   0.00000  -0.00007  -0.00020  -0.00218
  59        7PX        -0.00000  -0.00000   0.00000   0.00000   0.00000
  60        7PY        -0.00000   0.00000   0.00000   0.00000   0.00000
  61        7PZ        -0.00000   0.00000   0.00000   0.00000   0.00000
  62        8PX        -0.00000  -0.00000   0.00000   0.00000   0.00000
  63        8PY        -0.00000   0.00000   0.00000   0.00000   0.00001
  64        8PZ        -0.00000   0.00000   0.00000   0.00000   0.00002
  65        9PX         0.00000   0.00000  -0.00000  -0.00000  -0.00001
  66        9PY         0.00000  -0.00000  -0.00000  -0.00000  -0.00005
  67        9PZ         0.00000  -0.00000  -0.00000  -0.00000  -0.00012
  68       10PX        -0.00000   0.00000  -0.00000  -0.00002  -0.00007
  69       10PY         0.00000  -0.00000  -0.00000  -0.00007  -0.00126
  70       10PZ         0.00000  -0.00000  -0.00001  -0.00039  -0.00232
  71       11PX        -0.00000   0.00000  -0.00001  -0.00016   0.00005
  72       11PY        -0.00001   0.00001  -0.00010   0.00036  -0.00186
  73       11PZ         0.00001  -0.00000  -0.00026  -0.00207  -0.00192
  74 7   O  1S          0.00000   0.00000   0.00000   0.00000   0.00000
  75        2S          0.00000   0.00000   0.00000   0.00000   0.00000
  76        2PX         0.00000   0.00000   0.00000  -0.00000  -0.00000
  77        2PY         0.00000   0.00000   0.00000   0.00000  -0.00000
  78        2PZ         0.00000   0.00000   0.00000   0.00000   0.00000
  79        3S          0.00000  -0.00000  -0.00000  -0.00000  -0.00000
  80        3PX        -0.00000  -0.00000  -0.00000  -0.00000  -0.00000
  81        3PY        -0.00000   0.00000  -0.00000   0.00000  -0.00000
  82        3PZ        -0.00000   0.00000   0.00000   0.00000   0.00001
  83        4S          0.00000  -0.00000  -0.00000  -0.00000  -0.00004
  84        4PX        -0.00000  -0.00000  -0.00000  -0.00000  -0.00000
  85        4PY        -0.00000   0.00000  -0.00000   0.00000  -0.00005
  86        4PZ        -0.00000   0.00000   0.00000   0.00000   0.00007
  87 8   Cl 1S          0.00000  -0.00000   0.00000  -0.00000   0.00000
  88        2S          0.00000   0.00000   0.00000  -0.00000   0.00000
  89        3S         -0.00000   0.00000   0.00000   0.00000  -0.00000
  90        4S         -0.00000   0.00000  -0.00000  -0.00000  -0.00000
  91        5S          0.00000  -0.00000   0.00000   0.00000   0.00004
  92        6S         -0.00000   0.00000  -0.00000  -0.00001   0.00015
  93        7PX         0.00000  -0.00000   0.00000  -0.00000   0.00000
  94        7PY        -0.00000  -0.00000  -0.00000  -0.00000   0.00000
  95        7PZ        -0.00000   0.00000   0.00000   0.00000   0.00000
  96        8PX        -0.00000   0.00000  -0.00000   0.00000  -0.00000
  97        8PY         0.00000   0.00000   0.00000   0.00000  -0.00000
  98        8PZ         0.00000  -0.00000  -0.00000  -0.00000  -0.00000
  99        9PX        -0.00000   0.00000  -0.00000   0.00000  -0.00000
 100        9PY         0.00000   0.00000   0.00000   0.00000  -0.00000
 101        9PZ         0.00000  -0.00000  -0.00000   0.00000  -0.00001
 102       10PX        -0.00000   0.00000  -0.00000  -0.00000  -0.00001
 103       10PY         0.00000   0.00000   0.00000   0.00000  -0.00006
 104       10PZ         0.00000  -0.00000  -0.00000  -0.00000  -0.00010
 105       11PX        -0.00000   0.00000  -0.00001  -0.00006  -0.00004
 106       11PY         0.00000   0.00000   0.00000   0.00002  -0.00008
 107       11PZ         0.00000  -0.00000  -0.00000   0.00003  -0.00031
 108 9   Cl 1S          0.00000  -0.00000  -0.00000  -0.00000  -0.00000
 109        2S          0.00000   0.00000  -0.00000  -0.00000  -0.00000
 110        3S         -0.00000   0.00000   0.00000   0.00000   0.00003
 111        4S         -0.00000   0.00000   0.00000   0.00000   0.00010
 112        5S          0.00000  -0.00000  -0.00000  -0.00002  -0.00054
 113        6S         -0.00000   0.00000   0.00000   0.00027  -0.00028
 114        7PX         0.00000  -0.00000   0.00000   0.00000   0.00000
 115        7PY        -0.00000   0.00000   0.00000   0.00000   0.00004
 116        7PZ         0.00000  -0.00000   0.00000   0.00000   0.00001
 117        8PX        -0.00000   0.00000  -0.00000  -0.00000  -0.00000
 118        8PY         0.00000  -0.00000  -0.00000  -0.00000  -0.00001
 119        8PZ        -0.00000   0.00000  -0.00000  -0.00000  -0.00000
 120        9PX        -0.00000   0.00000  -0.00000  -0.00000  -0.00001
 121        9PY         0.00000  -0.00000  -0.00000  -0.00001  -0.00024
 122        9PZ        -0.00000   0.00000  -0.00000  -0.00000  -0.00005
 123       10PX        -0.00000   0.00000  -0.00000   0.00000  -0.00005
 124       10PY         0.00000  -0.00000  -0.00000  -0.00022  -0.00163
 125       10PZ        -0.00000   0.00000  -0.00000  -0.00017  -0.00039
 126       11PX        -0.00000   0.00000   0.00001   0.00005  -0.00002
 127       11PY         0.00000  -0.00000  -0.00027  -0.00190  -0.00369
 128       11PZ        -0.00000  -0.00000  -0.00017  -0.00154  -0.00148
                          31        32        33        34        35
  31        4PX         0.00056
  32        4PY         0.00000   0.00093
  33        4PZ         0.00000   0.00000   0.00281
  34 4   H  1S          0.00000  -0.00000  -0.00000   0.07138
  35        2S          0.00000  -0.00003  -0.00008   0.09861   0.27979
  36        3S         -0.00006  -0.00009  -0.00024   0.02352   0.10377
  37        4PX         0.00000  -0.00000  -0.00000   0.00000   0.00000
  38        4PY         0.00000   0.00000   0.00000   0.00000   0.00000
  39        4PZ         0.00000   0.00000   0.00000   0.00000   0.00000
  40 5   O  1S          0.00000  -0.00000  -0.00000   0.00000   0.00000
  41        2S          0.00000  -0.00000   0.00000  -0.00000   0.00000
  42        2PX        -0.00000  -0.00000   0.00000  -0.00000  -0.00001
  43        2PY        -0.00000   0.00000   0.00000  -0.00000  -0.00000
  44        2PZ         0.00000   0.00000  -0.00000  -0.00000  -0.00000
  45        3S         -0.00000   0.00000  -0.00000  -0.00000  -0.00000
  46        3PX        -0.00000  -0.00000   0.00000  -0.00000  -0.00022
  47        3PY        -0.00000   0.00000   0.00000  -0.00000  -0.00002
  48        3PZ         0.00000   0.00000  -0.00000  -0.00000  -0.00004
  49        4S          0.00000   0.00000  -0.00003  -0.00003  -0.00057
  50        4PX        -0.00000  -0.00000   0.00001  -0.00022  -0.00466
  51        4PY        -0.00000   0.00000   0.00001  -0.00004  -0.00052
  52        4PZ         0.00002   0.00002  -0.00036  -0.00008  -0.00088
  53 6   P  1S          0.00000   0.00000  -0.00000  -0.00000   0.00000
  54        2S          0.00000   0.00000  -0.00000  -0.00000   0.00000
  55        3S          0.00000  -0.00000   0.00000   0.00000  -0.00000
  56        4S          0.00000  -0.00000   0.00000   0.00000  -0.00000
  57        5S         -0.00000   0.00000  -0.00000  -0.00000  -0.00001
  58        6S         -0.00000   0.00001  -0.00001  -0.00007  -0.00020
  59        7PX         0.00000  -0.00000   0.00000   0.00000   0.00000
  60        7PY         0.00000  -0.00000   0.00000   0.00000   0.00000
  61        7PZ         0.00000  -0.00000   0.00000   0.00000   0.00000
  62        8PX        -0.00000  -0.00000   0.00000   0.00000   0.00000
  63        8PY         0.00000  -0.00000   0.00000   0.00000   0.00000
  64        8PZ         0.00000  -0.00000   0.00000   0.00000   0.00000
  65        9PX         0.00000   0.00000  -0.00000  -0.00000  -0.00000
  66        9PY        -0.00000   0.00000  -0.00000  -0.00000  -0.00000
  67        9PZ        -0.00000   0.00000  -0.00000  -0.00000  -0.00000
  68       10PX         0.00000   0.00000  -0.00000  -0.00000  -0.00017
  69       10PY        -0.00000   0.00000  -0.00000  -0.00001  -0.00024
  70       10PZ        -0.00000   0.00001  -0.00002  -0.00000  -0.00006
  71       11PX         0.00000   0.00000  -0.00001  -0.00009  -0.00127
  72       11PY         0.00000   0.00000   0.00002  -0.00022  -0.00054
  73       11PZ        -0.00001   0.00005  -0.00006  -0.00006  -0.00006
  74 7   O  1S         -0.00000   0.00000   0.00000   0.00000   0.00000
  75        2S          0.00000  -0.00000  -0.00000   0.00000   0.00000
  76        2PX        -0.00000   0.00000  -0.00000   0.00000   0.00000
  77        2PY        -0.00000   0.00000   0.00000   0.00000   0.00000
  78        2PZ        -0.00000  -0.00000   0.00000   0.00000   0.00000
  79        3S          0.00000  -0.00000  -0.00000  -0.00000  -0.00000
  80        3PX        -0.00000   0.00000  -0.00000   0.00000   0.00000
  81        3PY        -0.00000   0.00000   0.00000  -0.00000   0.00000
  82        3PZ        -0.00000  -0.00000   0.00000  -0.00000   0.00000
  83        4S          0.00000   0.00000  -0.00000  -0.00000  -0.00000
  84        4PX        -0.00000   0.00000  -0.00000   0.00000   0.00000
  85        4PY         0.00000   0.00000   0.00000  -0.00000   0.00000
  86        4PZ        -0.00000   0.00000   0.00000  -0.00000  -0.00000
  87 8   Cl 1S          0.00000  -0.00000  -0.00000  -0.00000  -0.00000
  88        2S          0.00000  -0.00000  -0.00000  -0.00000  -0.00000
  89        3S          0.00000   0.00000   0.00000   0.00000   0.00000
  90        4S          0.00000   0.00000   0.00000   0.00000   0.00000
  91        5S          0.00000  -0.00000   0.00000  -0.00000  -0.00002
  92        6S         -0.00000   0.00000  -0.00000   0.00000   0.00027
  93        7PX        -0.00000  -0.00000   0.00000  -0.00000  -0.00000
  94        7PY         0.00000   0.00000   0.00000   0.00000   0.00000
  95        7PZ         0.00000   0.00000   0.00000   0.00000   0.00000
  96        8PX         0.00000   0.00000  -0.00000   0.00000   0.00000
  97        8PY        -0.00000  -0.00000  -0.00000  -0.00000  -0.00000
  98        8PZ        -0.00000  -0.00000  -0.00000  -0.00000  -0.00000
  99        9PX         0.00000   0.00000  -0.00000   0.00000   0.00000
 100        9PY        -0.00000  -0.00000  -0.00000  -0.00000  -0.00001
 101        9PZ        -0.00000  -0.00000  -0.00000  -0.00000  -0.00001
 102       10PX         0.00000   0.00000  -0.00000   0.00000   0.00005
 103       10PY        -0.00000  -0.00000  -0.00000  -0.00000  -0.00028
 104       10PZ        -0.00000  -0.00000  -0.00000  -0.00000  -0.00015
 105       11PX         0.00000   0.00000  -0.00000   0.00005   0.00051
 106       11PY        -0.00000  -0.00000  -0.00000  -0.00036  -0.00273
 107       11PZ         0.00000  -0.00000  -0.00000  -0.00013  -0.00116
 108 9   Cl 1S          0.00000   0.00000  -0.00000   0.00000  -0.00000
 109        2S          0.00000   0.00000  -0.00000   0.00000  -0.00000
 110        3S         -0.00000  -0.00000   0.00000   0.00000   0.00000
 111        4S         -0.00000  -0.00000   0.00000  -0.00000  -0.00000
 112        5S          0.00000   0.00000  -0.00000   0.00000   0.00000
 113        6S         -0.00000   0.00001   0.00001  -0.00000  -0.00001
 114        7PX        -0.00000  -0.00000   0.00000   0.00000   0.00000
 115        7PY        -0.00000  -0.00000   0.00000   0.00000  -0.00000
 116        7PZ        -0.00000  -0.00000   0.00000   0.00000  -0.00000
 117        8PX         0.00000   0.00000  -0.00000  -0.00000  -0.00000
 118        8PY         0.00000   0.00000  -0.00000  -0.00000   0.00000
 119        8PZ         0.00000   0.00000  -0.00000  -0.00000  -0.00000
 120        9PX         0.00000   0.00000  -0.00000  -0.00000  -0.00000
 121        9PY         0.00000   0.00000  -0.00000   0.00000   0.00000
 122        9PZ         0.00000   0.00000  -0.00000  -0.00000   0.00000
 123       10PX         0.00000   0.00000  -0.00000  -0.00000  -0.00000
 124       10PY         0.00000   0.00002  -0.00000  -0.00000   0.00000
 125       10PZ         0.00000   0.00001  -0.00000  -0.00000  -0.00000
 126       11PX         0.00002  -0.00000   0.00000  -0.00000  -0.00001
 127       11PY         0.00000   0.00016  -0.00003  -0.00000   0.00000
 128       11PZ         0.00000   0.00008   0.00001  -0.00000  -0.00000
                          36        37        38        39        40
  36        3S          0.07360
  37        4PX         0.00000   0.00417
  38        4PY         0.00000   0.00000   0.00006
  39        4PZ         0.00000   0.00000   0.00000   0.00007
  40 5   O  1S         -0.00004   0.00000  -0.00000  -0.00000   0.64023
  41        2S         -0.00007   0.00000  -0.00000   0.00000   0.51411
  42        2PX        -0.00029  -0.00000   0.00000   0.00000   0.00000
  43        2PY        -0.00002  -0.00000   0.00000   0.00000   0.00000
  44        2PZ         0.00000  -0.00000  -0.00000   0.00000   0.00000
  45        3S          0.00141  -0.00000   0.00000  -0.00000  -0.04739
  46        3PX        -0.00194  -0.00000   0.00000   0.00000   0.00000
  47        3PY        -0.00017  -0.00000   0.00000   0.00000   0.00000
  48        3PZ         0.00001  -0.00000  -0.00000   0.00000   0.00000
  49        4S          0.00483  -0.00003   0.00000  -0.00000  -0.02472
  50        4PX        -0.01005  -0.00031   0.00001   0.00006   0.00000
  51        4PY        -0.00124  -0.00004   0.00000   0.00000   0.00000
  52        4PZ         0.00039  -0.00005  -0.00001   0.00002   0.00000
  53 6   P  1S         -0.00000  -0.00000   0.00000   0.00000   0.00000
  54        2S         -0.00000  -0.00000   0.00000   0.00000   0.00000
  55        3S          0.00002   0.00000  -0.00000  -0.00000  -0.00000
  56        4S          0.00007   0.00000  -0.00000  -0.00000  -0.00000
  57        5S         -0.00061  -0.00000   0.00000   0.00000   0.00003
  58        6S         -0.00218  -0.00001   0.00000   0.00000   0.00080
  59        7PX         0.00000   0.00000  -0.00000   0.00000   0.00000
  60        7PY         0.00000   0.00000   0.00000  -0.00000   0.00000
  61        7PZ         0.00000   0.00000   0.00000  -0.00000   0.00000
  62        8PX         0.00001   0.00000  -0.00000   0.00000   0.00000
  63        8PY         0.00002   0.00000   0.00000  -0.00000   0.00000
  64        8PZ         0.00001   0.00000   0.00000  -0.00000   0.00000
  65        9PX        -0.00004  -0.00000   0.00000  -0.00000  -0.00000
  66        9PY        -0.00011  -0.00000  -0.00000   0.00000  -0.00001
  67        9PZ        -0.00003  -0.00000  -0.00000   0.00000   0.00000
  68       10PX        -0.00064  -0.00000   0.00000  -0.00000  -0.00002
  69       10PY        -0.00224  -0.00001  -0.00000   0.00000   0.00031
  70       10PZ        -0.00076  -0.00000  -0.00000   0.00000  -0.00000
  71       11PX        -0.00009  -0.00000   0.00000   0.00001  -0.00002
  72       11PY        -0.00253  -0.00002   0.00001   0.00001   0.00046
  73       11PZ        -0.00111  -0.00000  -0.00000  -0.00000  -0.00000
  74 7   O  1S          0.00000   0.00000   0.00000  -0.00000   0.00000
  75        2S          0.00000  -0.00000  -0.00000   0.00000  -0.00000
  76        2PX         0.00000   0.00000  -0.00000  -0.00000  -0.00000
  77        2PY        -0.00000   0.00000   0.00000   0.00000   0.00000
  78        2PZ        -0.00000  -0.00000   0.00000   0.00000   0.00000
  79        3S         -0.00000  -0.00000  -0.00000  -0.00000  -0.00000
  80        3PX         0.00000   0.00000  -0.00000  -0.00000  -0.00000
  81        3PY        -0.00000   0.00000   0.00000   0.00000   0.00000
  82        3PZ        -0.00000   0.00000   0.00000   0.00000   0.00000
  83        4S         -0.00004  -0.00000  -0.00000   0.00000   0.00000
  84        4PX         0.00006   0.00000  -0.00000  -0.00000  -0.00000
  85        4PY        -0.00001   0.00000   0.00000   0.00000   0.00001
  86        4PZ        -0.00004  -0.00000   0.00000   0.00000   0.00000
  87 8   Cl 1S         -0.00000   0.00000   0.00000   0.00000   0.00000
  88        2S         -0.00000   0.00000   0.00000   0.00000   0.00000
  89        3S          0.00003  -0.00000  -0.00000  -0.00000   0.00000
  90        4S          0.00010  -0.00000  -0.00000  -0.00000   0.00000
  91        5S         -0.00054   0.00000   0.00000   0.00000  -0.00000
  92        6S         -0.00028  -0.00000   0.00001   0.00000  -0.00000
  93        7PX         0.00000   0.00000  -0.00000   0.00000  -0.00000
  94        7PY         0.00003  -0.00000  -0.00000  -0.00000  -0.00000
  95        7PZ         0.00002  -0.00000  -0.00000   0.00000  -0.00000
  96        8PX        -0.00000  -0.00000   0.00000  -0.00000   0.00000
  97        8PY        -0.00001   0.00000   0.00000   0.00000   0.00000
  98        8PZ        -0.00000   0.00000   0.00000  -0.00000   0.00000
  99        9PX        -0.00001   0.00000   0.00000  -0.00000   0.00000
 100        9PY        -0.00018   0.00000   0.00000   0.00000   0.00000
 101        9PZ        -0.00010   0.00000   0.00000  -0.00000   0.00000
 102       10PX        -0.00002   0.00000   0.00000  -0.00000  -0.00000
 103       10PY        -0.00127   0.00000   0.00001   0.00000   0.00000
 104       10PZ        -0.00077   0.00000   0.00000  -0.00000   0.00000
 105       11PX         0.00027   0.00003   0.00000  -0.00000  -0.00002
 106       11PY        -0.00372   0.00004   0.00006   0.00005   0.00001
 107       11PZ        -0.00174   0.00002   0.00005  -0.00000   0.00000
 108 9   Cl 1S          0.00000  -0.00000  -0.00000   0.00000   0.00000
 109        2S          0.00000  -0.00000  -0.00000   0.00000   0.00000
 110        3S         -0.00000   0.00000   0.00000  -0.00000   0.00000
 111        4S         -0.00000  -0.00000   0.00000  -0.00000   0.00000
 112        5S          0.00004   0.00000  -0.00000  -0.00000  -0.00000
 113        6S          0.00015  -0.00000  -0.00000   0.00000  -0.00000
 114        7PX         0.00000   0.00000   0.00000  -0.00000   0.00000
 115        7PY         0.00000   0.00000   0.00000   0.00000  -0.00000
 116        7PZ        -0.00000   0.00000  -0.00000   0.00000  -0.00000
 117        8PX        -0.00000  -0.00000  -0.00000   0.00000  -0.00000
 118        8PY        -0.00000  -0.00000  -0.00000  -0.00000   0.00000
 119        8PZ         0.00000  -0.00000   0.00000  -0.00000   0.00000
 120        9PX        -0.00000  -0.00000  -0.00000   0.00000  -0.00000
 121        9PY        -0.00001  -0.00000  -0.00000  -0.00000   0.00000
 122        9PZ         0.00000  -0.00000   0.00000  -0.00000   0.00000
 123       10PX        -0.00003  -0.00000  -0.00000   0.00000  -0.00000
 124       10PY        -0.00014  -0.00000  -0.00000  -0.00000   0.00000
 125       10PZ         0.00000  -0.00000   0.00000  -0.00000  -0.00000
 126       11PX        -0.00017  -0.00000  -0.00000   0.00000  -0.00000
 127       11PY        -0.00026  -0.00000  -0.00001   0.00000  -0.00001
 128       11PZ         0.00001  -0.00000   0.00000  -0.00000  -0.00001
                          41        42        43        44        45
  41        2S          0.52473
  42        2PX         0.00000   0.16068
  43        2PY         0.00000   0.00000   0.11841
  44        2PZ         0.00000   0.00000   0.00000   0.14889
  45        3S         -0.09070   0.00000   0.00000   0.00000   0.68325
  46        3PX         0.00000   0.13842   0.00000   0.00000   0.00000
  47        3PY         0.00000   0.00000   0.10640   0.00000   0.00000
  48        3PZ         0.00000   0.00000   0.00000   0.12961   0.00000
  49        4S         -0.04172   0.00000   0.00000   0.00000   0.50821
  50        4PX         0.00000   0.04945   0.00000   0.00000   0.00000
  51        4PY         0.00000   0.00000   0.03472   0.00000   0.00000
  52        4PZ         0.00000   0.00000   0.00000   0.04546   0.00000
  53 6   P  1S         -0.00000   0.00000   0.00000   0.00000  -0.00000
  54        2S         -0.00000   0.00000   0.00000   0.00000  -0.00000
  55        3S          0.00000  -0.00000  -0.00000  -0.00000   0.00000
  56        4S         -0.00000  -0.00000  -0.00000  -0.00000   0.00003
  57        5S          0.00006   0.00023   0.00164   0.00000  -0.00228
  58        6S          0.00127  -0.00002  -0.00005  -0.00000  -0.01969
  59        7PX        -0.00000   0.00000  -0.00000  -0.00000  -0.00000
  60        7PY        -0.00000  -0.00000  -0.00000  -0.00000  -0.00000
  61        7PZ        -0.00000   0.00000   0.00000  -0.00000  -0.00000
  62        8PX         0.00000   0.00000  -0.00000  -0.00000  -0.00001
  63        8PY         0.00000  -0.00000  -0.00000  -0.00000  -0.00005
  64        8PZ         0.00000  -0.00000   0.00000  -0.00000  -0.00000
  65        9PX        -0.00000  -0.00000   0.00011   0.00000   0.00014
  66        9PY        -0.00002   0.00013   0.00079  -0.00000   0.00132
  67        9PZ         0.00000   0.00000  -0.00000   0.00001  -0.00000
  68       10PX        -0.00003   0.00028   0.00079   0.00000   0.00072
  69       10PY         0.00051   0.00129   0.00512   0.00000  -0.00790
  70       10PZ        -0.00000  -0.00000  -0.00000   0.00080   0.00000
  71       11PX        -0.00004   0.00067  -0.00001   0.00000   0.00114
  72       11PY         0.00071   0.00002  -0.00016  -0.00000  -0.00843
  73       11PZ        -0.00000   0.00000  -0.00000   0.00053   0.00001
  74 7   O  1S         -0.00000   0.00000   0.00000   0.00000  -0.00000
  75        2S          0.00000  -0.00000  -0.00000  -0.00000  -0.00000
  76        2PX         0.00000  -0.00000   0.00000  -0.00000   0.00000
  77        2PY        -0.00000   0.00000  -0.00000  -0.00000  -0.00000
  78        2PZ        -0.00000  -0.00000  -0.00000  -0.00000  -0.00000
  79        3S         -0.00000  -0.00000  -0.00000  -0.00000   0.00000
  80        3PX        -0.00000  -0.00000   0.00000  -0.00000   0.00000
  81        3PY         0.00000   0.00000  -0.00000  -0.00000  -0.00000
  82        3PZ         0.00000  -0.00000  -0.00000  -0.00000  -0.00000
  83        4S          0.00000  -0.00000   0.00001  -0.00001  -0.00005
  84        4PX        -0.00000  -0.00000   0.00000  -0.00000  -0.00000
  85        4PY         0.00001   0.00000  -0.00008  -0.00004  -0.00034
  86        4PZ         0.00000  -0.00000  -0.00002  -0.00001  -0.00012
  87 8   Cl 1S          0.00000   0.00000   0.00000   0.00000   0.00000
  88        2S          0.00000   0.00000   0.00000   0.00000   0.00000
  89        3S          0.00000   0.00000   0.00000   0.00000  -0.00000
  90        4S         -0.00000   0.00000   0.00000  -0.00000  -0.00000
  91        5S         -0.00000  -0.00000  -0.00000  -0.00000   0.00000
  92        6S         -0.00000  -0.00003   0.00000   0.00000   0.00014
  93        7PX         0.00000   0.00000   0.00000   0.00000  -0.00000
  94        7PY         0.00000   0.00000   0.00000   0.00000   0.00000
  95        7PZ         0.00000  -0.00000  -0.00000   0.00000   0.00000
  96        8PX        -0.00000  -0.00000  -0.00000  -0.00000   0.00000
  97        8PY        -0.00000  -0.00000  -0.00000  -0.00000  -0.00000
  98        8PZ        -0.00000   0.00000   0.00000  -0.00000  -0.00000
  99        9PX        -0.00000  -0.00000  -0.00000  -0.00000   0.00000
 100        9PY        -0.00000  -0.00000  -0.00000  -0.00000  -0.00000
 101        9PZ        -0.00000  -0.00000   0.00000  -0.00000  -0.00000
 102       10PX        -0.00000  -0.00000  -0.00000  -0.00000   0.00001
 103       10PY         0.00000  -0.00000  -0.00000  -0.00000  -0.00000
 104       10PZ         0.00000   0.00000   0.00000  -0.00000  -0.00000
 105       11PX        -0.00004  -0.00027  -0.00008  -0.00000   0.00098
 106       11PY         0.00001  -0.00004  -0.00002  -0.00000  -0.00007
 107       11PZ         0.00000  -0.00000   0.00000  -0.00004  -0.00000
 108 9   Cl 1S          0.00000   0.00000   0.00000   0.00000   0.00000
 109        2S          0.00000   0.00000   0.00000   0.00000   0.00000
 110        3S          0.00000   0.00000   0.00000   0.00000  -0.00000
 111        4S         -0.00000   0.00000   0.00000   0.00000  -0.00000
 112        5S         -0.00000  -0.00000  -0.00000  -0.00000   0.00000
 113        6S         -0.00000  -0.00000  -0.00002  -0.00002   0.00014
 114        7PX        -0.00000   0.00000   0.00000   0.00000  -0.00000
 115        7PY         0.00000  -0.00000   0.00000   0.00000   0.00000
 116        7PZ         0.00000   0.00000   0.00000   0.00000  -0.00000
 117        8PX         0.00000  -0.00000  -0.00000  -0.00000   0.00000
 118        8PY        -0.00000   0.00000  -0.00000  -0.00000   0.00000
 119        8PZ        -0.00000  -0.00000  -0.00000  -0.00000   0.00000
 120        9PX         0.00000  -0.00000  -0.00000  -0.00000   0.00000
 121        9PY        -0.00000   0.00000  -0.00000  -0.00000  -0.00000
 122        9PZ        -0.00000  -0.00000  -0.00000  -0.00000   0.00000
 123       10PX        -0.00000  -0.00000  -0.00000  -0.00000   0.00000
 124       10PY         0.00000   0.00000  -0.00000  -0.00000   0.00000
 125       10PZ        -0.00000  -0.00000  -0.00000  -0.00000   0.00000
 126       11PX        -0.00000  -0.00003  -0.00000  -0.00000   0.00004
 127       11PY        -0.00001   0.00000  -0.00017  -0.00010   0.00057
 128       11PZ        -0.00001  -0.00000  -0.00011  -0.00004   0.00029
                          46        47        48        49        50
  46        3PX         0.31868
  47        3PY         0.00000   0.25582
  48        3PZ         0.00000   0.00000   0.30175
  49        4S          0.00000   0.00000   0.00000   0.77570
  50        4PX         0.22059   0.00000   0.00000   0.00000   0.39750
  51        4PY         0.00000   0.16096   0.00000   0.00000   0.00000
  52        4PZ         0.00000   0.00000   0.20470   0.00000   0.00000
  53 6   P  1S          0.00000   0.00000   0.00000  -0.00001   0.00000
  54        2S          0.00000   0.00000   0.00000  -0.00007   0.00004
  55        3S         -0.00001  -0.00004  -0.00000   0.00064  -0.00030
  56        4S         -0.00006  -0.00048  -0.00000   0.00273  -0.00107
  57        5S          0.00180   0.01369   0.00000  -0.01943   0.00594
  58        6S         -0.00016   0.00007  -0.00000  -0.07368  -0.00251
  59        7PX         0.00000  -0.00000  -0.00000  -0.00000  -0.00000
  60        7PY        -0.00000  -0.00001  -0.00000  -0.00000  -0.00007
  61        7PZ         0.00000   0.00000  -0.00000  -0.00000  -0.00000
  62        8PX         0.00000  -0.00008  -0.00000  -0.00006  -0.00005
  63        8PY        -0.00010  -0.00057   0.00000  -0.00018  -0.00086
  64        8PZ        -0.00000   0.00000  -0.00001  -0.00000  -0.00000
  65        9PX         0.00000   0.00138   0.00000   0.00050  -0.00019
  66        9PY         0.00150   0.00911  -0.00000   0.00394   0.00452
  67        9PZ         0.00000  -0.00000   0.00015   0.00000   0.00000
  68       10PX         0.00231   0.00473  -0.00000  -0.00298   0.00773
  69       10PY         0.00725   0.02784   0.00000  -0.05585   0.01055
  70       10PZ        -0.00000  -0.00001   0.00554   0.00001  -0.00000
  71       11PX         0.00430  -0.00005   0.00000  -0.00296   0.01646
  72       11PY         0.00013  -0.00077  -0.00000  -0.05613  -0.00132
  73       11PZ         0.00000  -0.00000   0.00328   0.00001   0.00000
  74 7   O  1S          0.00000   0.00000   0.00000  -0.00000   0.00000
  75        2S          0.00000   0.00000   0.00000  -0.00000   0.00000
  76        2PX        -0.00000   0.00000  -0.00000   0.00000  -0.00000
  77        2PY         0.00000  -0.00000  -0.00000  -0.00006   0.00000
  78        2PZ        -0.00000  -0.00000  -0.00000   0.00001  -0.00000
  79        3S         -0.00000  -0.00000  -0.00000   0.00005  -0.00000
  80        3PX        -0.00000   0.00000  -0.00000   0.00000  -0.00005
  81        3PY         0.00000  -0.00000  -0.00000  -0.00080   0.00000
  82        3PZ        -0.00000  -0.00000  -0.00000   0.00007  -0.00000
  83        4S         -0.00000   0.00007  -0.00014  -0.00056  -0.00000
  84        4PX        -0.00004   0.00000  -0.00000   0.00000  -0.00075
  85        4PY         0.00000  -0.00086  -0.00039  -0.00948   0.00001
  86        4PZ        -0.00000  -0.00020  -0.00009   0.00067  -0.00001
  87 8   Cl 1S         -0.00000  -0.00000   0.00000   0.00000  -0.00000
  88        2S         -0.00000  -0.00000   0.00000   0.00000  -0.00000
  89        3S          0.00000   0.00000  -0.00000  -0.00000   0.00000
  90        4S          0.00000   0.00000  -0.00000  -0.00000   0.00001
  91        5S         -0.00000  -0.00000  -0.00000   0.00002  -0.00006
  92        6S         -0.00034   0.00001   0.00000   0.00073  -0.00288
  93        7PX         0.00000   0.00000   0.00000   0.00000   0.00003
  94        7PY         0.00000   0.00000   0.00000   0.00000   0.00001
  95        7PZ        -0.00000  -0.00000   0.00000  -0.00000  -0.00000
  96        8PX        -0.00000  -0.00000  -0.00000  -0.00000  -0.00001
  97        8PY        -0.00000  -0.00000  -0.00000  -0.00000  -0.00000
  98        8PZ         0.00000   0.00000  -0.00000   0.00000   0.00000
  99        9PX        -0.00000  -0.00000  -0.00000  -0.00003  -0.00020
 100        9PY        -0.00000  -0.00000  -0.00000  -0.00004  -0.00009
 101        9PZ        -0.00000   0.00000  -0.00000   0.00000   0.00000
 102       10PX        -0.00011  -0.00003  -0.00000  -0.00076  -0.00424
 103       10PY        -0.00004  -0.00001  -0.00000  -0.00085  -0.00159
 104       10PZ         0.00000   0.00000  -0.00000   0.00000   0.00000
 105       11PX        -0.00178  -0.00056  -0.00000  -0.00087  -0.00839
 106       11PY        -0.00034  -0.00013  -0.00000  -0.00358  -0.00186
 107       11PZ        -0.00000   0.00000  -0.00023  -0.00000  -0.00000
 108 9   Cl 1S         -0.00000  -0.00000  -0.00000   0.00000  -0.00000
 109        2S         -0.00000  -0.00000  -0.00000   0.00000  -0.00000
 110        3S          0.00000   0.00000   0.00000  -0.00000   0.00000
 111        4S          0.00000   0.00000   0.00000  -0.00000   0.00000
 112        5S         -0.00000  -0.00000  -0.00000   0.00002  -0.00000
 113        6S         -0.00001  -0.00016  -0.00015   0.00073  -0.00007
 114        7PX         0.00000   0.00000   0.00000  -0.00000   0.00000
 115        7PY        -0.00000   0.00000   0.00000   0.00001  -0.00000
 116        7PZ         0.00000   0.00000   0.00000   0.00000   0.00000
 117        8PX        -0.00000  -0.00000  -0.00000   0.00000  -0.00000
 118        8PY         0.00000  -0.00000  -0.00000  -0.00000   0.00000
 119        8PZ        -0.00000  -0.00000  -0.00000  -0.00000  -0.00000
 120        9PX        -0.00000  -0.00000  -0.00000   0.00000  -0.00001
 121        9PY         0.00000  -0.00000  -0.00000  -0.00007   0.00000
 122        9PZ        -0.00000  -0.00000  -0.00000  -0.00000  -0.00000
 123       10PX        -0.00000  -0.00000  -0.00000   0.00002  -0.00012
 124       10PY        -0.00000  -0.00008  -0.00005  -0.00149   0.00004
 125       10PZ        -0.00000  -0.00004  -0.00002  -0.00013  -0.00003
 126       11PX        -0.00017  -0.00001  -0.00001   0.00013  -0.00134
 127       11PY         0.00003  -0.00116  -0.00072  -0.00497   0.00026
 128       11PZ        -0.00003  -0.00072  -0.00025   0.00038  -0.00015
                          51        52        53        54        55
  51        4PY         0.28427
  52        4PZ         0.00000   0.36256
  53 6   P  1S          0.00002   0.00000   0.38230
  54        2S          0.00020   0.00000   0.45511   1.04647
  55        3S         -0.00160  -0.00000  -0.02777  -0.19420   0.59662
  56        4S         -0.00641  -0.00000  -0.01929  -0.14522   0.63408
  57        5S          0.03560   0.00000   0.00111   0.00950  -0.07248
  58        6S         -0.01566  -0.00000   0.00045   0.00386  -0.02888
  59        7PX        -0.00005  -0.00000   0.00000   0.00000   0.00000
  60        7PY        -0.00033  -0.00000   0.00000   0.00000   0.00000
  61        7PZ         0.00000  -0.00002   0.00000   0.00000   0.00000
  62        8PX        -0.00066  -0.00000   0.00000   0.00000   0.00000
  63        8PY        -0.00403  -0.00000   0.00000   0.00000   0.00000
  64        8PZ         0.00000  -0.00019   0.00000   0.00000   0.00000
  65        9PX         0.00386   0.00000   0.00000   0.00000   0.00000
  66        9PY         0.02200   0.00000   0.00000   0.00000   0.00000
  67        9PZ        -0.00000   0.00029   0.00000   0.00000   0.00000
  68       10PX         0.00523   0.00000   0.00000   0.00000   0.00000
  69       10PY         0.02925   0.00000   0.00000   0.00000   0.00000
  70       10PZ        -0.00001   0.01261   0.00000   0.00000   0.00000
  71       11PX        -0.00164   0.00000   0.00000   0.00000   0.00000
  72       11PY        -0.00011  -0.00000   0.00000   0.00000   0.00000
  73       11PZ        -0.00000   0.01156   0.00000   0.00000   0.00000
  74 7   O  1S         -0.00000   0.00000   0.00000   0.00000  -0.00000
  75        2S         -0.00000   0.00000  -0.00000  -0.00000   0.00000
  76        2PX         0.00000  -0.00000   0.00000   0.00000  -0.00000
  77        2PY        -0.00017  -0.00003   0.00000   0.00000  -0.00000
  78        2PZ        -0.00002  -0.00000   0.00000   0.00000  -0.00000
  79        3S          0.00002  -0.00001  -0.00000  -0.00000   0.00000
  80        3PX         0.00000  -0.00000   0.00000   0.00000  -0.00001
  81        3PY        -0.00171  -0.00028   0.00000   0.00000  -0.00001
  82        3PZ        -0.00017  -0.00003   0.00000   0.00000  -0.00004
  83        4S          0.00094  -0.00144  -0.00001  -0.00007   0.00061
  84        4PX         0.00001  -0.00000   0.00000   0.00004  -0.00034
  85        4PY        -0.01154  -0.00298   0.00001   0.00008  -0.00062
  86        4PZ        -0.00061  -0.00042   0.00003   0.00025  -0.00200
  87 8   Cl 1S          0.00000  -0.00000   0.00000   0.00000   0.00000
  88        2S          0.00000  -0.00000   0.00000   0.00000   0.00000
  89        3S         -0.00000   0.00000   0.00000   0.00000  -0.00000
  90        4S          0.00000   0.00000   0.00000   0.00000  -0.00000
  91        5S         -0.00001  -0.00000  -0.00000  -0.00000   0.00000
  92        6S         -0.00001   0.00000  -0.00001  -0.00009   0.00078
  93        7PX         0.00001   0.00000  -0.00000  -0.00000   0.00000
  94        7PY         0.00001   0.00000  -0.00000  -0.00000   0.00000
  95        7PZ        -0.00000   0.00000   0.00000   0.00000  -0.00000
  96        8PX        -0.00000  -0.00000   0.00000   0.00000  -0.00000
  97        8PY        -0.00000  -0.00000   0.00000   0.00000  -0.00000
  98        8PZ         0.00000  -0.00000  -0.00000  -0.00000   0.00000
  99        9PX        -0.00010  -0.00000   0.00000   0.00000  -0.00000
 100        9PY        -0.00006  -0.00000   0.00000   0.00000  -0.00000
 101        9PZ         0.00000  -0.00001  -0.00000  -0.00000   0.00000
 102       10PX        -0.00171  -0.00000   0.00000   0.00004  -0.00033
 103       10PY        -0.00079  -0.00000   0.00000   0.00000  -0.00000
 104       10PZ         0.00000  -0.00027  -0.00000  -0.00000   0.00000
 105       11PX        -0.00353  -0.00000  -0.00000  -0.00004   0.00035
 106       11PY        -0.00094  -0.00000   0.00000   0.00000  -0.00000
 107       11PZ         0.00000  -0.00238   0.00000   0.00000  -0.00000
 108 9   Cl 1S         -0.00000  -0.00000   0.00000   0.00000   0.00000
 109        2S         -0.00000  -0.00000   0.00000   0.00000   0.00000
 110        3S          0.00000   0.00000   0.00000   0.00000  -0.00000
 111        4S          0.00000   0.00000   0.00000   0.00000  -0.00000
 112        5S         -0.00003  -0.00004  -0.00000  -0.00000   0.00000
 113        6S         -0.00153  -0.00129  -0.00001  -0.00009   0.00078
 114        7PX        -0.00000   0.00000  -0.00000  -0.00000   0.00000
 115        7PY         0.00003   0.00001  -0.00000  -0.00000   0.00000
 116        7PZ         0.00001   0.00000  -0.00000  -0.00000   0.00000
 117        8PX         0.00000  -0.00000   0.00000   0.00000  -0.00000
 118        8PY        -0.00001  -0.00000   0.00000   0.00000  -0.00000
 119        8PZ        -0.00000  -0.00000   0.00000   0.00000  -0.00000
 120        9PX         0.00000  -0.00000   0.00000   0.00000  -0.00000
 121        9PY        -0.00026  -0.00010   0.00000   0.00000  -0.00000
 122        9PZ        -0.00008  -0.00002   0.00000   0.00000  -0.00000
 123       10PX         0.00002  -0.00005   0.00000   0.00000  -0.00004
 124       10PY        -0.00440  -0.00189   0.00000   0.00001  -0.00008
 125       10PZ        -0.00170  -0.00047   0.00000   0.00002  -0.00021
 126       11PX         0.00004  -0.00015  -0.00000  -0.00002   0.00011
 127       11PY        -0.00761  -0.00361   0.00000   0.00000  -0.00000
 128       11PZ        -0.00383  -0.00069  -0.00000  -0.00003   0.00024
                          56        57        58        59        60
  56        4S          0.99005
  57        5S         -0.27800   0.91930
  58        6S         -0.10340   0.40594   0.39008
  59        7PX         0.00000   0.00000   0.00000   0.34544
  60        7PY         0.00000   0.00000   0.00000   0.00000   0.34619
  61        7PZ         0.00000   0.00000   0.00000   0.00000   0.00000
  62        8PX         0.00000   0.00000   0.00000   0.33074   0.00000
  63        8PY         0.00000   0.00000   0.00000   0.00000   0.33157
  64        8PZ         0.00000   0.00000   0.00000   0.00000   0.00000
  65        9PX         0.00000   0.00000   0.00000   0.00276   0.00000
  66        9PY         0.00000   0.00000   0.00000   0.00000   0.00240
  67        9PZ         0.00000   0.00000   0.00000   0.00000   0.00000
  68       10PX         0.00000   0.00000   0.00000  -0.00275   0.00000
  69       10PY         0.00000   0.00000   0.00000   0.00000  -0.00264
  70       10PZ         0.00000   0.00000   0.00000   0.00000   0.00000
  71       11PX         0.00000   0.00000   0.00000  -0.00003   0.00000
  72       11PY         0.00000   0.00000   0.00000   0.00000  -0.00002
  73       11PZ         0.00000   0.00000   0.00000   0.00000   0.00000
  74 7   O  1S         -0.00000   0.00006   0.00095   0.00000   0.00000
  75        2S         -0.00000   0.00010   0.00155  -0.00000  -0.00000
  76        2PX        -0.00000   0.00032   0.00010   0.00000  -0.00000
  77        2PY        -0.00000   0.00053   0.00077  -0.00000   0.00000
  78        2PZ        -0.00000   0.00182   0.00118  -0.00000  -0.00000
  79        3S          0.00005  -0.00386  -0.02675  -0.00000  -0.00000
  80        3PX        -0.00009   0.00260   0.00071   0.00000  -0.00000
  81        3PY        -0.00016   0.00434   0.00479  -0.00000   0.00000
  82        3PZ        -0.00051   0.01475   0.00760  -0.00000  -0.00000
  83        4S          0.00256  -0.02106  -0.06587  -0.00000   0.00002
  84        4PX        -0.00133   0.00754   0.00035  -0.00002  -0.00002
  85        4PY        -0.00250   0.01179   0.01311  -0.00002   0.00000
  86        4PZ        -0.00783   0.04205   0.01446  -0.00006  -0.00011
  87 8   Cl 1S          0.00000  -0.00000  -0.00001   0.00000   0.00000
  88        2S          0.00000  -0.00000  -0.00014   0.00000   0.00000
  89        3S         -0.00000   0.00003   0.00103   0.00000  -0.00000
  90        4S         -0.00000   0.00011   0.00324   0.00000  -0.00000
  91        5S          0.00002  -0.00148  -0.01267  -0.00000   0.00000
  92        6S          0.00303  -0.02198  -0.05009   0.00002   0.00000
  93        7PX         0.00000  -0.00028  -0.00118   0.00000  -0.00000
  94        7PY         0.00000  -0.00000  -0.00000   0.00000   0.00000
  95        7PZ        -0.00000   0.00000  -0.00000  -0.00000  -0.00000
  96        8PX        -0.00000   0.00007   0.00026  -0.00000   0.00000
  97        8PY        -0.00000   0.00000   0.00000  -0.00000  -0.00000
  98        8PZ         0.00000  -0.00000   0.00000   0.00000   0.00000
  99        9PX        -0.00001   0.00172   0.00514  -0.00000   0.00000
 100        9PY        -0.00000   0.00000   0.00000  -0.00000  -0.00000
 101        9PZ         0.00000  -0.00000   0.00000   0.00000   0.00000
 102       10PX        -0.00183   0.01733   0.03423  -0.00014   0.00000
 103       10PY        -0.00000   0.00000   0.00001   0.00000  -0.00000
 104       10PZ         0.00000  -0.00000   0.00000   0.00000   0.00000
 105       11PX         0.00094  -0.00566   0.01031  -0.00010   0.00000
 106       11PY        -0.00000   0.00001   0.00002  -0.00000  -0.00001
 107       11PZ        -0.00000   0.00000   0.00001   0.00000   0.00000
 108 9   Cl 1S          0.00000  -0.00000  -0.00001   0.00000   0.00000
 109        2S          0.00000  -0.00000  -0.00014   0.00000   0.00000
 110        3S         -0.00000   0.00003   0.00103   0.00000   0.00000
 111        4S         -0.00000   0.00011   0.00324   0.00000   0.00000
 112        5S          0.00002  -0.00148  -0.01267  -0.00000  -0.00000
 113        6S          0.00303  -0.02198  -0.05007  -0.00000   0.00001
 114        7PX         0.00000  -0.00003  -0.00007  -0.00000   0.00000
 115        7PY         0.00000  -0.00007  -0.00036   0.00000   0.00000
 116        7PZ         0.00000  -0.00018  -0.00074   0.00000   0.00000
 117        8PX        -0.00000   0.00001   0.00002   0.00000  -0.00000
 118        8PY        -0.00000   0.00002   0.00008  -0.00000  -0.00000
 119        8PZ        -0.00000   0.00005   0.00016  -0.00000  -0.00000
 120        9PX        -0.00000   0.00020   0.00030   0.00000  -0.00000
 121        9PY        -0.00000   0.00044   0.00164  -0.00000  -0.00000
 122        9PZ        -0.00001   0.00108   0.00320  -0.00000  -0.00000
 123       10PX        -0.00020   0.00198   0.00194   0.00000  -0.00000
 124       10PY        -0.00044   0.00406   0.01046  -0.00000  -0.00000
 125       10PZ        -0.00119   0.01129   0.02186  -0.00001  -0.00002
 126       11PX         0.00045  -0.00217  -0.00215  -0.00000  -0.00000
 127       11PY        -0.00008  -0.00017   0.00593  -0.00000  -0.00000
 128       11PZ         0.00057  -0.00331   0.00656  -0.00001  -0.00002
                          61        62        63        64        65
  61        7PZ         0.34674
  62        8PX         0.00000   0.96373
  63        8PY         0.00000   0.00000   0.96654
  64        8PZ         0.33196   0.00000   0.00000   0.96724
  65        9PX         0.00000   0.01993   0.00000   0.00000   0.05347
  66        9PY         0.00000   0.00000   0.01670   0.00000   0.00000
  67        9PZ         0.00242   0.00000   0.00000   0.01720   0.00000
  68       10PX         0.00000  -0.02801   0.00000   0.00000   0.08965
  69       10PY         0.00000   0.00000  -0.02692   0.00000   0.00000
  70       10PZ        -0.00299   0.00000   0.00000  -0.03053   0.00000
  71       11PX         0.00000  -0.00035   0.00000   0.00000   0.00068
  72       11PY         0.00000   0.00000  -0.00014   0.00000   0.00000
  73       11PZ        -0.00000   0.00000   0.00000   0.00004   0.00000
  74 7   O  1S          0.00000   0.00000   0.00000   0.00000  -0.00000
  75        2S         -0.00000   0.00000   0.00000   0.00000  -0.00000
  76        2PX        -0.00000   0.00000  -0.00000  -0.00000  -0.00001
  77        2PY        -0.00000  -0.00000   0.00000  -0.00000   0.00003
  78        2PZ        -0.00000  -0.00000  -0.00000  -0.00000   0.00010
  79        3S         -0.00000  -0.00001  -0.00001  -0.00003   0.00012
  80        3PX        -0.00000   0.00001  -0.00003  -0.00009   0.00003
  81        3PY        -0.00000  -0.00003   0.00001  -0.00018   0.00039
  82        3PZ        -0.00001  -0.00009  -0.00018  -0.00024   0.00125
  83        4S          0.00002  -0.00002   0.00021   0.00014   0.00026
  84        4PX        -0.00006  -0.00021  -0.00021  -0.00068   0.00089
  85        4PY        -0.00012  -0.00024   0.00002  -0.00140   0.00108
  86        4PZ        -0.00012  -0.00071  -0.00127  -0.00138   0.00338
  87 8   Cl 1S          0.00000  -0.00000   0.00000   0.00000   0.00000
  88        2S          0.00000  -0.00000   0.00000   0.00000   0.00000
  89        3S         -0.00000   0.00000  -0.00000  -0.00000  -0.00000
  90        4S         -0.00000   0.00000  -0.00000  -0.00000  -0.00001
  91        5S         -0.00000  -0.00002   0.00000  -0.00000   0.00026
  92        6S          0.00000   0.00025   0.00000   0.00000  -0.00112
  93        7PX         0.00000   0.00000  -0.00000   0.00000  -0.00008
  94        7PY        -0.00000   0.00000   0.00000  -0.00000  -0.00000
  95        7PZ         0.00000  -0.00000  -0.00000   0.00000  -0.00000
  96        8PX        -0.00000  -0.00000   0.00000  -0.00000   0.00003
  97        8PY         0.00000  -0.00000  -0.00000   0.00000   0.00000
  98        8PZ        -0.00000   0.00000   0.00000  -0.00000   0.00000
  99        9PX        -0.00000  -0.00002   0.00000  -0.00000   0.00113
 100        9PY         0.00000  -0.00000  -0.00000   0.00000   0.00000
 101        9PZ        -0.00000  -0.00000   0.00000  -0.00000   0.00000
 102       10PX        -0.00000  -0.00215   0.00000  -0.00000   0.01657
 103       10PY         0.00000  -0.00000  -0.00004   0.00000   0.00000
 104       10PZ        -0.00000   0.00000   0.00000  -0.00003   0.00000
 105       11PX        -0.00000  -0.00124   0.00000  -0.00000   0.00665
 106       11PY        -0.00000  -0.00000  -0.00009  -0.00000   0.00000
 107       11PZ        -0.00001   0.00000   0.00000  -0.00010  -0.00000
 108 9   Cl 1S          0.00000  -0.00000  -0.00000  -0.00000   0.00000
 109        2S          0.00000  -0.00000  -0.00000  -0.00000   0.00000
 110        3S          0.00000   0.00000   0.00000   0.00000  -0.00000
 111        4S          0.00000   0.00000   0.00000   0.00000  -0.00000
 112        5S         -0.00000  -0.00000  -0.00000  -0.00001   0.00001
 113        6S          0.00002  -0.00002   0.00009   0.00018   0.00009
 114        7PX         0.00000  -0.00000   0.00000   0.00000  -0.00000
 115        7PY         0.00000   0.00000   0.00000   0.00000  -0.00000
 116        7PZ         0.00000   0.00000   0.00000   0.00000  -0.00000
 117        8PX        -0.00000   0.00000  -0.00000  -0.00000   0.00000
 118        8PY        -0.00000  -0.00000  -0.00000  -0.00000   0.00000
 119        8PZ        -0.00000  -0.00000  -0.00000  -0.00000   0.00000
 120        9PX        -0.00000   0.00000  -0.00000  -0.00000   0.00000
 121        9PY        -0.00000  -0.00000  -0.00000  -0.00000   0.00002
 122        9PZ        -0.00000  -0.00000  -0.00000  -0.00001   0.00006
 123       10PX        -0.00001   0.00000  -0.00007  -0.00022  -0.00005
 124       10PY        -0.00003  -0.00006  -0.00002  -0.00043   0.00041
 125       10PZ        -0.00006  -0.00017  -0.00034  -0.00091   0.00101
 126       11PX        -0.00002  -0.00001  -0.00004  -0.00017  -0.00050
 127       11PY        -0.00003  -0.00004   0.00001  -0.00038   0.00017
 128       11PZ        -0.00003  -0.00015  -0.00021  -0.00042   0.00055
                          66        67        68        69        70
  66        9PY         0.06344
  67        9PZ         0.00000   0.05955
  68       10PX         0.00000   0.00000   0.36726
  69       10PY         0.08458   0.00000   0.00000   0.36337
  70       10PZ         0.00000   0.09810   0.00000   0.00000   0.41236
  71       11PX         0.00000   0.00000   0.02924   0.00000   0.00000
  72       11PY        -0.00113   0.00000   0.00000   0.03715   0.00000
  73       11PZ         0.00000  -0.00114   0.00000   0.00000   0.01211
  74 7   O  1S         -0.00000  -0.00001   0.00003   0.00014   0.00026
  75        2S         -0.00000  -0.00001   0.00005   0.00024   0.00043
  76        2PX         0.00003   0.00010   0.00061   0.00064   0.00150
  77        2PY         0.00000   0.00022   0.00061  -0.00009   0.00312
  78        2PZ         0.00021   0.00033   0.00147   0.00325   0.00241
  79        3S          0.00022   0.00069  -0.00093  -0.00396  -0.00766
  80        3PX         0.00037   0.00122   0.00481   0.00361   0.00845
  81        3PY         0.00003   0.00261   0.00346   0.00061   0.01770
  82        3PZ         0.00249   0.00373   0.00829   0.01834   0.01258
  83        4S         -0.00079   0.00024  -0.00457  -0.02088  -0.03914
  84        4PX         0.00084   0.00315   0.01985   0.00611   0.01427
  85        4PY         0.00002   0.00668   0.00624   0.01143   0.02930
  86        4PZ         0.00575   0.00724   0.01439   0.02878   0.01060
  87 8   Cl 1S         -0.00000  -0.00000  -0.00000  -0.00000  -0.00000
  88        2S         -0.00000  -0.00000  -0.00002  -0.00000  -0.00000
  89        3S          0.00000   0.00000   0.00021   0.00000   0.00000
  90        4S         -0.00000  -0.00000   0.00052   0.00000   0.00000
  91        5S          0.00000   0.00000  -0.00276  -0.00000  -0.00000
  92        6S         -0.00000  -0.00000  -0.03268  -0.00001  -0.00001
  93        7PX         0.00000  -0.00000  -0.00351   0.00000  -0.00000
  94        7PY         0.00000   0.00000   0.00000  -0.00029  -0.00000
  95        7PZ         0.00000   0.00000   0.00000  -0.00000  -0.00026
  96        8PX        -0.00000   0.00000   0.00078  -0.00000   0.00000
  97        8PY        -0.00000  -0.00000  -0.00000   0.00007   0.00000
  98        8PZ        -0.00000  -0.00000  -0.00000   0.00000   0.00006
  99        9PX        -0.00000   0.00000   0.01615  -0.00000   0.00000
 100        9PY        -0.00001  -0.00000  -0.00000   0.00154   0.00000
 101        9PZ        -0.00000  -0.00001  -0.00000   0.00000   0.00141
 102       10PX        -0.00000   0.00000   0.08388  -0.00003   0.00001
 103       10PY        -0.00012  -0.00000  -0.00001   0.01282   0.00000
 104       10PZ        -0.00000  -0.00017  -0.00000   0.00000   0.01142
 105       11PX        -0.00000   0.00000   0.02399  -0.00002   0.00000
 106       11PY        -0.00050   0.00000  -0.00000   0.01286   0.00000
 107       11PZ        -0.00000  -0.00053  -0.00000   0.00000   0.01357
 108 9   Cl 1S          0.00000   0.00000   0.00000  -0.00000  -0.00000
 109        2S          0.00000   0.00000   0.00000  -0.00001  -0.00002
 110        3S         -0.00000  -0.00000  -0.00000   0.00006   0.00015
 111        4S         -0.00000  -0.00000  -0.00002   0.00017   0.00036
 112        5S          0.00005   0.00019  -0.00003  -0.00080  -0.00194
 113        6S         -0.00045  -0.00076  -0.00078  -0.00907  -0.02284
 114        7PX        -0.00000  -0.00001  -0.00003  -0.00012  -0.00052
 115        7PY        -0.00000  -0.00001  -0.00014   0.00008  -0.00095
 116        7PZ        -0.00001  -0.00004  -0.00042  -0.00073  -0.00124
 117        8PX         0.00000   0.00000   0.00001   0.00003   0.00012
 118        8PY         0.00000   0.00000   0.00003  -0.00002   0.00021
 119        8PZ         0.00000   0.00001   0.00009   0.00016   0.00027
 120        9PX         0.00003   0.00008   0.00026   0.00058   0.00245
 121        9PY         0.00005   0.00018   0.00063  -0.00027   0.00446
 122        9PZ         0.00014   0.00054   0.00191   0.00342   0.00566
 123       10PX         0.00049   0.00134   0.00325   0.00335   0.01410
 124       10PY         0.00043   0.00282   0.00405  -0.00002   0.02542
 125       10PZ         0.00228   0.00753   0.01172   0.01914   0.02708
 126       11PX         0.00021   0.00066   0.00511   0.00099   0.00684
 127       11PY        -0.00042   0.00165   0.00130   0.00481   0.01314
 128       11PZ         0.00080   0.00250   0.00617   0.00745   0.00461
                          71        72        73        74        75
  71       11PX         0.07698
  72       11PY         0.00000   0.08456
  73       11PZ         0.00000   0.00000   0.03980
  74 7   O  1S         -0.00002  -0.00000  -0.00006   0.64119
  75        2S         -0.00004  -0.00003  -0.00018   0.51560   0.52747
  76        2PX         0.00173   0.00009   0.00024   0.00000   0.00000
  77        2PY         0.00004   0.00154   0.00019   0.00000   0.00000
  78        2PZ         0.00019   0.00038   0.00007   0.00000   0.00000
  79        3S          0.00092   0.00118   0.00483  -0.05017  -0.09577
  80        3PX         0.01078   0.00053   0.00137   0.00000   0.00000
  81        3PY         0.00026   0.00981   0.00108   0.00000   0.00000
  82        3PZ         0.00109   0.00217   0.00075   0.00000   0.00000
  83        4S          0.00058   0.00278   0.00507  -0.02364  -0.04002
  84        4PX         0.04139   0.00179   0.00440   0.00000   0.00000
  85        4PY         0.00070   0.03729   0.00351   0.00000   0.00000
  86        4PZ         0.00331   0.00788   0.00604   0.00000   0.00000
  87 8   Cl 1S         -0.00003   0.00000  -0.00000   0.00000   0.00000
  88        2S         -0.00023   0.00000  -0.00000   0.00000   0.00000
  89        3S          0.00165  -0.00000   0.00000   0.00000   0.00000
  90        4S          0.00538  -0.00000   0.00000   0.00000  -0.00000
  91        5S         -0.01655   0.00000  -0.00000  -0.00000  -0.00000
  92        6S         -0.06119   0.00001   0.00000  -0.00000  -0.00000
  93        7PX         0.00042   0.00000  -0.00000   0.00000  -0.00000
  94        7PY        -0.00000  -0.00016  -0.00000  -0.00000   0.00000
  95        7PZ         0.00000   0.00000  -0.00012  -0.00000   0.00000
  96        8PX        -0.00010  -0.00000   0.00000  -0.00000   0.00000
  97        8PY         0.00000   0.00004   0.00000   0.00000  -0.00000
  98        8PZ        -0.00000  -0.00000   0.00003   0.00000  -0.00000
  99        9PX        -0.00154  -0.00000   0.00000  -0.00000   0.00000
 100        9PY         0.00000   0.00075   0.00000   0.00000  -0.00000
 101        9PZ        -0.00000  -0.00000   0.00053   0.00000  -0.00000
 102       10PX        -0.01287  -0.00001   0.00002  -0.00000  -0.00000
 103       10PY         0.00001   0.00529   0.00000   0.00000   0.00000
 104       10PZ        -0.00001  -0.00000   0.00376   0.00000   0.00000
 105       11PX        -0.00592  -0.00000   0.00001  -0.00003  -0.00005
 106       11PY         0.00001  -0.00012   0.00000  -0.00000  -0.00000
 107       11PZ        -0.00001   0.00000   0.00225   0.00000   0.00001
 108 9   Cl 1S         -0.00000  -0.00000  -0.00002   0.00000   0.00000
 109        2S         -0.00002  -0.00004  -0.00016   0.00000   0.00000
 110        3S          0.00017   0.00030   0.00117   0.00000   0.00000
 111        4S          0.00054   0.00100   0.00384   0.00000  -0.00000
 112        5S         -0.00129  -0.00275  -0.01251  -0.00000  -0.00000
 113        6S         -0.00842  -0.01212  -0.04064  -0.00000  -0.00000
 114        7PX        -0.00014   0.00001  -0.00001   0.00000  -0.00000
 115        7PY         0.00002  -0.00013  -0.00008   0.00000  -0.00000
 116        7PZ         0.00013   0.00023   0.00010  -0.00000   0.00000
 117        8PX         0.00003  -0.00000   0.00000  -0.00000   0.00000
 118        8PY        -0.00000   0.00003   0.00002  -0.00000   0.00000
 119        8PZ        -0.00003  -0.00005  -0.00002   0.00000  -0.00000
 120        9PX         0.00056  -0.00003   0.00009  -0.00000   0.00000
 121        9PY        -0.00006   0.00054   0.00041  -0.00000   0.00000
 122        9PZ        -0.00051  -0.00089  -0.00036   0.00000  -0.00000
 123       10PX         0.00529  -0.00051  -0.00024  -0.00000  -0.00000
 124       10PY        -0.00078   0.00508   0.00114  -0.00000  -0.00000
 125       10PZ        -0.00438  -0.00762  -0.00180   0.00000   0.00000
 126       11PX         0.00171  -0.00101  -0.00034  -0.00000  -0.00000
 127       11PY        -0.00122   0.00361   0.00062  -0.00000  -0.00000
 128       11PZ        -0.00394  -0.00631   0.00309  -0.00003  -0.00004
                          76        77        78        79        80
  76        2PX         0.15620
  77        2PY         0.00000   0.14950
  78        2PZ         0.00000   0.00000   0.11454
  79        3S          0.00000   0.00000   0.00000   0.73050
  80        3PX         0.13417   0.00000   0.00000   0.00000   0.30794
  81        3PY         0.00000   0.12966   0.00000   0.00000   0.00000
  82        3PZ         0.00000   0.00000   0.10011   0.00000   0.00000
  83        4S          0.00000   0.00000   0.00000   0.50237   0.00000
  84        4PX         0.04539   0.00000   0.00000   0.00000   0.20167
  85        4PY         0.00000   0.04181   0.00000   0.00000   0.00000
  86        4PZ         0.00000   0.00000   0.03054   0.00000   0.00000
  87 8   Cl 1S          0.00000   0.00000   0.00000   0.00000  -0.00000
  88        2S          0.00000   0.00000   0.00000   0.00000  -0.00000
  89        3S          0.00000   0.00000   0.00000  -0.00000   0.00000
  90        4S          0.00000   0.00000   0.00000  -0.00000   0.00000
  91        5S         -0.00000  -0.00000  -0.00000   0.00000  -0.00000
  92        6S         -0.00008   0.00000   0.00001   0.00012  -0.00075
  93        7PX         0.00000   0.00000   0.00000  -0.00000   0.00000
  94        7PY         0.00000  -0.00000   0.00000   0.00000   0.00000
  95        7PZ         0.00000   0.00000   0.00000   0.00000   0.00000
  96        8PX        -0.00000  -0.00000  -0.00000   0.00000  -0.00000
  97        8PY        -0.00000   0.00000  -0.00000  -0.00000  -0.00000
  98        8PZ        -0.00000  -0.00000  -0.00000  -0.00000  -0.00000
  99        9PX        -0.00000  -0.00000  -0.00000   0.00000  -0.00000
 100        9PY        -0.00000   0.00000  -0.00000  -0.00000  -0.00000
 101        9PZ        -0.00000  -0.00000  -0.00000  -0.00000  -0.00000
 102       10PX        -0.00000  -0.00000  -0.00000   0.00001  -0.00014
 103       10PY        -0.00000   0.00000  -0.00000  -0.00000  -0.00001
 104       10PZ        -0.00000  -0.00000  -0.00000  -0.00000  -0.00003
 105       11PX        -0.00046  -0.00002  -0.00005   0.00117  -0.00299
 106       11PY        -0.00002  -0.00003  -0.00004   0.00004  -0.00015
 107       11PZ        -0.00007  -0.00003   0.00000  -0.00006  -0.00051
 108 9   Cl 1S          0.00000   0.00000   0.00000   0.00000  -0.00000
 109        2S          0.00000   0.00000   0.00000   0.00000  -0.00000
 110        3S          0.00000   0.00000   0.00000  -0.00000   0.00000
 111        4S          0.00000   0.00000   0.00000  -0.00000   0.00000
 112        5S         -0.00000  -0.00000  -0.00000   0.00000  -0.00000
 113        6S         -0.00000  -0.00000  -0.00006   0.00012  -0.00002
 114        7PX         0.00000   0.00000   0.00000  -0.00000   0.00000
 115        7PY         0.00000   0.00000   0.00000  -0.00000   0.00000
 116        7PZ         0.00000   0.00000   0.00000  -0.00000   0.00000
 117        8PX        -0.00000  -0.00000  -0.00000   0.00000  -0.00000
 118        8PY        -0.00000  -0.00000  -0.00000   0.00000  -0.00000
 119        8PZ        -0.00000  -0.00000  -0.00000   0.00000  -0.00000
 120        9PX        -0.00000  -0.00000  -0.00000   0.00000  -0.00000
 121        9PY        -0.00000  -0.00000  -0.00000   0.00000  -0.00000
 122        9PZ        -0.00000  -0.00000  -0.00000   0.00000  -0.00000
 123       10PX        -0.00000  -0.00000  -0.00000   0.00000  -0.00000
 124       10PY        -0.00000   0.00000  -0.00000   0.00000  -0.00000
 125       10PZ        -0.00000  -0.00000  -0.00001   0.00000  -0.00000
 126       11PX        -0.00005  -0.00000  -0.00000   0.00002  -0.00033
 127       11PY        -0.00000  -0.00002  -0.00001   0.00003  -0.00001
 128       11PZ        -0.00000  -0.00001  -0.00063   0.00110  -0.00003
                          81        82        83        84        85
  81        3PY         0.30057
  82        3PZ         0.00000   0.23430
  83        4S          0.00000   0.00000   0.65588
  84        4PX         0.00000   0.00000   0.00000   0.34317
  85        4PY         0.18748   0.00000   0.00000   0.00000   0.30589
  86        4PZ         0.00000   0.13805   0.00000   0.00000   0.00000
  87 8   Cl 1S         -0.00000  -0.00000   0.00000  -0.00000   0.00000
  88        2S         -0.00000  -0.00000   0.00000  -0.00000   0.00000
  89        3S          0.00000   0.00000  -0.00000   0.00000  -0.00000
  90        4S          0.00000   0.00000  -0.00000   0.00001   0.00000
  91        5S         -0.00000  -0.00000   0.00001  -0.00013  -0.00000
  92        6S          0.00001   0.00007   0.00068  -0.00677   0.00004
  93        7PX         0.00000   0.00000   0.00000   0.00003   0.00000
  94        7PY        -0.00000   0.00000   0.00000   0.00000  -0.00000
  95        7PZ         0.00000   0.00000   0.00000   0.00001   0.00000
  96        8PX        -0.00000  -0.00000  -0.00000  -0.00001  -0.00000
  97        8PY         0.00000  -0.00000  -0.00000  -0.00000   0.00000
  98        8PZ        -0.00000  -0.00000  -0.00000  -0.00000  -0.00000
  99        9PX        -0.00000  -0.00000  -0.00000  -0.00022  -0.00001
 100        9PY         0.00000  -0.00000  -0.00001  -0.00002  -0.00000
 101        9PZ        -0.00000  -0.00000  -0.00003  -0.00007  -0.00002
 102       10PX        -0.00000  -0.00002  -0.00015  -0.00523  -0.00018
 103       10PY         0.00000  -0.00000  -0.00017  -0.00044  -0.00005
 104       10PZ        -0.00000  -0.00000  -0.00062  -0.00118  -0.00036
 105       11PX        -0.00014  -0.00036   0.00211  -0.01309  -0.00059
 106       11PY        -0.00025  -0.00028  -0.00076  -0.00086  -0.00195
 107       11PZ        -0.00022   0.00001  -0.00342  -0.00283  -0.00156
 108 9   Cl 1S         -0.00000  -0.00000   0.00000  -0.00000  -0.00000
 109        2S         -0.00000  -0.00000   0.00000  -0.00000  -0.00000
 110        3S          0.00000   0.00000  -0.00000   0.00000   0.00000
 111        4S          0.00000   0.00000  -0.00000   0.00000   0.00000
 112        5S         -0.00000  -0.00000   0.00001  -0.00000  -0.00000
 113        6S         -0.00002  -0.00063   0.00068  -0.00015  -0.00022
 114        7PX         0.00000   0.00000  -0.00000   0.00000   0.00000
 115        7PY         0.00000   0.00000  -0.00000   0.00000  -0.00000
 116        7PZ         0.00000   0.00000   0.00000   0.00000   0.00000
 117        8PX        -0.00000  -0.00000   0.00000  -0.00000  -0.00000
 118        8PY        -0.00000  -0.00000   0.00000  -0.00000   0.00000
 119        8PZ        -0.00000  -0.00000  -0.00000  -0.00000  -0.00000
 120        9PX        -0.00000  -0.00000   0.00000  -0.00001  -0.00000
 121        9PY        -0.00000  -0.00000   0.00000  -0.00000  -0.00000
 122        9PZ        -0.00000  -0.00000  -0.00004   0.00000  -0.00000
 123       10PX        -0.00000  -0.00000   0.00003  -0.00009  -0.00001
 124       10PY         0.00000  -0.00000   0.00004  -0.00001   0.00005
 125       10PZ        -0.00000  -0.00020  -0.00100  -0.00004  -0.00009
 126       11PX        -0.00000  -0.00003   0.00021  -0.00204  -0.00003
 127       11PY        -0.00012  -0.00006   0.00029  -0.00003  -0.00046
 128       11PZ        -0.00008  -0.00424  -0.00258  -0.00012  -0.00028
                          86        87        88        89        90
  86        4PZ         0.22247
  87 8   Cl 1S          0.00000   0.37157
  88        2S          0.00000   0.45416   1.09442
  89        3S         -0.00000  -0.02893  -0.21080   0.59802
  90        4S          0.00000  -0.02170  -0.17075   0.68088   1.10476
  91        5S         -0.00003   0.00146   0.01316  -0.09409  -0.32297
  92        6S          0.00075   0.00085   0.00777  -0.05477  -0.18854
  93        7PX         0.00001   0.00000   0.00000   0.00000   0.00000
  94        7PY         0.00000   0.00000   0.00000   0.00000   0.00000
  95        7PZ         0.00000   0.00000   0.00000   0.00000   0.00000
  96        8PX        -0.00000   0.00000   0.00000   0.00000   0.00000
  97        8PY        -0.00000   0.00000   0.00000   0.00000   0.00000
  98        8PZ        -0.00000   0.00000   0.00000   0.00000   0.00000
  99        9PX        -0.00005   0.00000   0.00000   0.00000   0.00000
 100        9PY        -0.00002   0.00000   0.00000   0.00000   0.00000
 101        9PZ        -0.00002   0.00000   0.00000   0.00000   0.00000
 102       10PX        -0.00061   0.00000   0.00000   0.00000   0.00000
 103       10PY        -0.00033   0.00000   0.00000   0.00000   0.00000
 104       10PZ        -0.00025   0.00000   0.00000   0.00000   0.00000
 105       11PX        -0.00129   0.00000   0.00000   0.00000   0.00000
 106       11PY        -0.00174   0.00000   0.00000   0.00000   0.00000
 107       11PZ        -0.00005   0.00000   0.00000   0.00000   0.00000
 108 9   Cl 1S         -0.00000   0.00000   0.00000   0.00000   0.00000
 109        2S         -0.00000   0.00000   0.00000   0.00000   0.00000
 110        3S          0.00000   0.00000   0.00000   0.00000   0.00000
 111        4S          0.00001   0.00000   0.00000   0.00000   0.00000
 112        5S         -0.00016   0.00000   0.00000  -0.00000  -0.00000
 113        6S         -0.00561   0.00000   0.00000  -0.00000  -0.00000
 114        7PX        -0.00000   0.00000   0.00000   0.00000  -0.00000
 115        7PY        -0.00000   0.00000   0.00000   0.00000   0.00000
 116        7PZ         0.00006   0.00000   0.00000   0.00000   0.00000
 117        8PX         0.00000   0.00000   0.00000   0.00000   0.00000
 118        8PY         0.00000   0.00000   0.00000   0.00000  -0.00000
 119        8PZ        -0.00002   0.00000   0.00000   0.00000  -0.00000
 120        9PX         0.00000  -0.00000  -0.00000   0.00000   0.00000
 121        9PY         0.00000  -0.00000  -0.00000   0.00000  -0.00000
 122        9PZ        -0.00045  -0.00000  -0.00000   0.00000  -0.00000
 123       10PX        -0.00001  -0.00000  -0.00000   0.00000   0.00000
 124       10PY        -0.00002  -0.00000  -0.00000   0.00000  -0.00000
 125       10PZ        -0.00842   0.00000   0.00000  -0.00000  -0.00000
 126       11PX        -0.00004   0.00000   0.00000  -0.00001  -0.00004
 127       11PY        -0.00011   0.00000   0.00000  -0.00000  -0.00001
 128       11PZ        -0.02085   0.00000   0.00000  -0.00000  -0.00002
                          91        92        93        94        95
  91        5S          0.85566
  92        6S          0.62261   0.78841
  93        7PX         0.00000   0.00000   1.36418
  94        7PY         0.00000   0.00000   0.00000   1.39866
  95        7PZ         0.00000   0.00000   0.00000   0.00000   1.39881
  96        8PX         0.00000   0.00000   0.24168   0.00000   0.00000
  97        8PY         0.00000   0.00000   0.00000   0.24849   0.00000
  98        8PZ         0.00000   0.00000   0.00000   0.00000   0.24853
  99        9PX         0.00000   0.00000   0.00741   0.00000   0.00000
 100        9PY         0.00000   0.00000   0.00000  -0.01989   0.00000
 101        9PZ         0.00000   0.00000   0.00000   0.00000  -0.01998
 102       10PX         0.00000   0.00000  -0.05123   0.00000   0.00000
 103       10PY         0.00000   0.00000   0.00000  -0.07342   0.00000
 104       10PZ         0.00000   0.00000   0.00000   0.00000  -0.07363
 105       11PX         0.00000   0.00000  -0.00479   0.00000   0.00000
 106       11PY         0.00000   0.00000   0.00000  -0.01034   0.00000
 107       11PZ         0.00000   0.00000   0.00000   0.00000  -0.01035
 108 9   Cl 1S          0.00000   0.00000   0.00000   0.00000   0.00000
 109        2S          0.00000   0.00000   0.00000   0.00000   0.00000
 110        3S         -0.00000  -0.00000   0.00000   0.00000   0.00000
 111        4S         -0.00000  -0.00000  -0.00000  -0.00000  -0.00000
 112        5S          0.00000   0.00005  -0.00000   0.00000   0.00000
 113        6S          0.00005   0.00016   0.00001   0.00000   0.00000
 114        7PX         0.00000   0.00001  -0.00000  -0.00000  -0.00000
 115        7PY        -0.00000   0.00000  -0.00000   0.00000  -0.00000
 116        7PZ        -0.00000   0.00000  -0.00000  -0.00000  -0.00000
 117        8PX        -0.00000  -0.00000   0.00000   0.00000   0.00000
 118        8PY         0.00000  -0.00000   0.00000  -0.00000   0.00000
 119        8PZ         0.00000  -0.00000   0.00000   0.00000   0.00000
 120        9PX        -0.00000  -0.00006   0.00000   0.00000   0.00000
 121        9PY         0.00000  -0.00001   0.00000  -0.00000   0.00000
 122        9PZ         0.00000  -0.00001   0.00000   0.00000   0.00000
 123       10PX        -0.00001  -0.00115   0.00000   0.00000   0.00000
 124       10PY         0.00000  -0.00014   0.00000  -0.00000   0.00000
 125       10PZ         0.00000  -0.00031   0.00000   0.00000   0.00000
 126       11PX         0.00037  -0.00212   0.00009   0.00000   0.00005
 127       11PY         0.00013  -0.00057   0.00002   0.00000   0.00001
 128       11PZ         0.00024  -0.00055   0.00005   0.00001   0.00001
                          96        97        98        99       100
  96        8PX         0.15874
  97        8PY         0.00000   0.16369
  98        8PZ         0.00000   0.00000   0.16373
  99        9PX        -0.00014   0.00000   0.00000   0.08459
 100        9PY         0.00000   0.00229   0.00000   0.00000   0.13735
 101        9PZ         0.00000   0.00000   0.00230   0.00000   0.00000
 102       10PX         0.00907   0.00000   0.00000   0.14476   0.00000
 103       10PY         0.00000   0.01290   0.00000   0.00000   0.22460
 104       10PZ         0.00000   0.00000   0.01294   0.00000   0.00000
 105       11PX         0.00104   0.00000   0.00000   0.01889   0.00000
 106       11PY         0.00000   0.00221   0.00000   0.00000   0.04390
 107       11PZ         0.00000   0.00000   0.00221   0.00000   0.00000
 108 9   Cl 1S          0.00000   0.00000   0.00000  -0.00000  -0.00000
 109        2S          0.00000   0.00000   0.00000  -0.00000  -0.00000
 110        3S          0.00000   0.00000   0.00000   0.00000   0.00000
 111        4S          0.00000   0.00000   0.00000   0.00000   0.00000
 112        5S          0.00000  -0.00000  -0.00000   0.00000  -0.00000
 113        6S         -0.00000  -0.00000  -0.00000  -0.00005  -0.00001
 114        7PX         0.00000   0.00000   0.00000   0.00000   0.00000
 115        7PY         0.00000  -0.00000   0.00000   0.00000  -0.00000
 116        7PZ         0.00000   0.00000   0.00000   0.00000   0.00000
 117        8PX        -0.00000  -0.00000  -0.00000  -0.00000  -0.00000
 118        8PY        -0.00000   0.00000  -0.00000  -0.00000   0.00000
 119        8PZ        -0.00000  -0.00000  -0.00000  -0.00000  -0.00000
 120        9PX        -0.00000  -0.00000  -0.00000  -0.00000  -0.00000
 121        9PY        -0.00000   0.00000  -0.00000  -0.00000   0.00000
 122        9PZ        -0.00000  -0.00000  -0.00000  -0.00000  -0.00000
 123       10PX        -0.00000  -0.00000  -0.00000  -0.00001  -0.00000
 124       10PY        -0.00000   0.00000  -0.00000  -0.00000   0.00000
 125       10PZ        -0.00000  -0.00000  -0.00000  -0.00000  -0.00000
 126       11PX        -0.00002  -0.00000  -0.00001  -0.00036  -0.00003
 127       11PY        -0.00001  -0.00000  -0.00000  -0.00011  -0.00002
 128       11PZ        -0.00001  -0.00000  -0.00000  -0.00024  -0.00007
                         101       102       103       104       105
 101        9PZ         0.13745
 102       10PX         0.00000   0.49672
 103       10PY         0.00000   0.00000   0.68809
 104       10PZ         0.22518   0.00000   0.00000   0.69120
 105       11PX         0.00000   0.11628   0.00000   0.00000   0.07519
 106       11PY         0.00000   0.00000   0.23586   0.00000   0.00000
 107       11PZ         0.04395   0.00000   0.00000   0.23675   0.00000
 108 9   Cl 1S         -0.00000  -0.00000  -0.00000  -0.00000   0.00000
 109        2S         -0.00000  -0.00000  -0.00000  -0.00000   0.00000
 110        3S          0.00000   0.00000   0.00000   0.00000  -0.00001
 111        4S          0.00000   0.00000   0.00000   0.00000  -0.00006
 112        5S         -0.00000   0.00000  -0.00000  -0.00000   0.00062
 113        6S         -0.00003  -0.00100  -0.00012  -0.00048  -0.00221
 114        7PX         0.00000   0.00000   0.00000   0.00000   0.00011
 115        7PY         0.00000   0.00000  -0.00000   0.00000   0.00002
 116        7PZ         0.00000   0.00000   0.00000   0.00000   0.00004
 117        8PX        -0.00000  -0.00000  -0.00000  -0.00000  -0.00003
 118        8PY        -0.00000  -0.00000   0.00000  -0.00000  -0.00001
 119        8PZ        -0.00000  -0.00000  -0.00000  -0.00000  -0.00001
 120        9PX        -0.00000  -0.00001  -0.00000  -0.00000  -0.00051
 121        9PY        -0.00000  -0.00000   0.00000  -0.00000  -0.00011
 122        9PZ        -0.00000  -0.00000  -0.00000  -0.00000  -0.00019
 123       10PX        -0.00000  -0.00063  -0.00007  -0.00025  -0.00452
 124       10PY        -0.00000  -0.00010   0.00000  -0.00006  -0.00113
 125       10PZ        -0.00000  -0.00021  -0.00004  -0.00007  -0.00220
 126       11PX        -0.00027  -0.00479  -0.00022  -0.00245  -0.00531
 127       11PY        -0.00008  -0.00111  -0.00026  -0.00057  -0.00208
 128       11PZ        -0.00003  -0.00214  -0.00056  -0.00023  -0.00305
                         106       107       108       109       110
 106       11PY         0.20768
 107       11PZ         0.00000   0.20551
 108 9   Cl 1S          0.00000   0.00000   0.37157
 109        2S          0.00000   0.00000   0.45416   1.09442
 110        3S         -0.00000  -0.00000  -0.02893  -0.21080   0.59802
 111        4S         -0.00000  -0.00002  -0.02170  -0.17075   0.68088
 112        5S         -0.00001   0.00013   0.00146   0.01316  -0.09409
 113        6S          0.00003  -0.00106   0.00085   0.00777  -0.05477
 114        7PX         0.00001   0.00004   0.00000   0.00000   0.00000
 115        7PY         0.00000   0.00002   0.00000   0.00000   0.00000
 116        7PZ         0.00001   0.00000   0.00000   0.00000   0.00000
 117        8PX        -0.00000  -0.00001   0.00000   0.00000   0.00000
 118        8PY        -0.00000  -0.00000   0.00000   0.00000   0.00000
 119        8PZ        -0.00000  -0.00000   0.00000   0.00000   0.00000
 120        9PX        -0.00006  -0.00019   0.00000   0.00000   0.00000
 121        9PY        -0.00002  -0.00008   0.00000   0.00000   0.00000
 122        9PZ        -0.00004   0.00001   0.00000   0.00000   0.00000
 123       10PX        -0.00071  -0.00205   0.00000   0.00000   0.00000
 124       10PY        -0.00021  -0.00090   0.00000   0.00000   0.00000
 125       10PZ        -0.00041  -0.00020   0.00000   0.00000   0.00000
 126       11PX        -0.00018  -0.00348   0.00000   0.00000   0.00000
 127       11PY        -0.00176  -0.00177   0.00000   0.00000   0.00000
 128       11PZ        -0.00101  -0.00000   0.00000   0.00000   0.00000
                         111       112       113       114       115
 111        4S          1.10476
 112        5S         -0.32297   0.85566
 113        6S         -0.18854   0.62261   0.78842
 114        7PX         0.00000   0.00000   0.00000   1.39367
 115        7PY         0.00000   0.00000   0.00000   0.00000   1.38940
 116        7PZ         0.00000   0.00000   0.00000   0.00000   0.00000
 117        8PX         0.00000   0.00000   0.00000   0.24752   0.00000
 118        8PY         0.00000   0.00000   0.00000   0.00000   0.24665
 119        8PZ         0.00000   0.00000   0.00000   0.00000   0.00000
 120        9PX         0.00000   0.00000   0.00000  -0.01587   0.00000
 121        9PY         0.00000   0.00000   0.00000   0.00000  -0.01269
 122        9PZ         0.00000   0.00000   0.00000   0.00000   0.00000
 123       10PX         0.00000   0.00000   0.00000  -0.07032   0.00000
 124       10PY         0.00000   0.00000   0.00000   0.00000  -0.06717
 125       10PZ         0.00000   0.00000   0.00000   0.00000   0.00000
 126       11PX         0.00000   0.00000   0.00000  -0.00971   0.00000
 127       11PY         0.00000   0.00000   0.00000   0.00000  -0.00893
 128       11PZ         0.00000   0.00000   0.00000   0.00000   0.00000
                         116       117       118       119       120
 116        7PZ         1.37859
 117        8PX         0.00000   0.16300
 118        8PY         0.00000   0.00000   0.16234
 119        8PZ         0.24453   0.00000   0.00000   0.16081
 120        9PX         0.00000   0.00193   0.00000   0.00000   0.12941
 121        9PY         0.00000   0.00000   0.00164   0.00000   0.00000
 122        9PZ        -0.00391   0.00000   0.00000   0.00087   0.00000
 123       10PX         0.00000   0.01237   0.00000   0.00000   0.21311
 124       10PY         0.00000   0.00000   0.01181   0.00000   0.00000
 125       10PZ        -0.06079   0.00000   0.00000   0.01072   0.00000
 126       11PX         0.00000   0.00208   0.00000   0.00000   0.04098
 127       11PY         0.00000   0.00000   0.00191   0.00000   0.00000
 128       11PZ        -0.00685   0.00000   0.00000   0.00147   0.00000
                         121       122       123       124       125
 121        9PY         0.12363
 122        9PZ         0.00000   0.10637
 123       10PX         0.00000   0.00000   0.66268
 124       10PY         0.20270   0.00000   0.00000   0.63113
 125       10PZ         0.00000   0.17874   0.00000   0.00000   0.58215
 126       11PX         0.00000   0.00000   0.22293   0.00000   0.00000
 127       11PY         0.03757   0.00000   0.00000   0.20439   0.00000
 128       11PZ         0.00000   0.02820   0.00000   0.00000   0.16159
                         126       127       128
 126       11PX         0.19405
 127       11PY         0.00000   0.17358
 128       11PZ         0.00000   0.00000   0.12081
     Gross orbital populations:
                           1
   1 1   Si 1S          0.78737
   2        2S          1.18246
   3        3S          0.94700
   4        4S          1.03858
   5        5S          0.86491
   6        6S          0.39955
   7        7PX         0.66121
   8        7PY         0.66066
   9        7PZ         0.65683
  10        8PX         1.29608
  11        8PY         1.29609
  12        8PZ         1.29793
  13        9PX         0.24761
  14        9PY         0.23908
  15        9PZ         0.21024
  16       10PX         0.39950
  17       10PY         0.40936
  18       10PZ         0.23890
  19       11PX         0.07391
  20       11PY         0.09290
  21       11PZ         0.03336
  22 2   H  1S          0.24496
  23        2S          0.66280
  24        3S          0.19184
  25        4PX         0.00238
  26        4PY         0.01449
  27        4PZ         0.00061
  28 3   H  1S          0.24721
  29        2S          0.65828
  30        3S          0.20555
  31        4PX         0.00239
  32        4PY         0.00400
  33        4PZ         0.01095
  34 4   H  1S          0.24721
  35        2S          0.65828
  36        3S          0.20554
  37        4PX         0.01573
  38        4PY         0.00081
  39        4PZ         0.00078
  40 5   O  1S          1.08406
  41        2S          0.90934
  42        2PX         0.35220
  43        2PY         0.26892
  44        2PZ         0.32961
  45        3S          1.01142
  46        3PX         0.70055
  47        3PY         0.58533
  48        3PZ         0.67215
  49        4S          0.97359
  50        4PX         0.70226
  51        4PY         0.52460
  52        4PZ         0.67293
  53 6   P  1S          0.79191
  54        2S          1.17557
  55        3S          0.90681
  56        4S          1.07348
  57        5S          1.03221
  58        6S          0.44119
  59        7PX         0.67574
  60        7PY         0.67692
  61        7PZ         0.67764
  62        8PX         1.28028
  63        8PY         1.27971
  64        8PZ         1.27934
  65        9PX         0.20487
  66        9PY         0.22147
  67        9PZ         0.21856
  68       10PX         0.64623
  69       10PY         0.58035
  70       10PZ         0.66835
  71       11PX         0.07679
  72       11PY         0.09288
  73       11PZ         0.04702
  74 7   O  1S          1.08424
  75        2S          0.90926
  76        2PX         0.34043
  77        2PY         0.32750
  78        2PZ         0.25580
  79        3S          1.05490
  80        3PX         0.67300
  81        3PY         0.65835
  82        3PZ         0.53855
  83        4S          0.95144
  84        4PX         0.65367
  85        4PY         0.61806
  86        4PZ         0.48240
  87 8   Cl 1S          0.77737
  88        2S          1.18757
  89        3S          0.89323
  90        4S          1.09097
  91        5S          1.04266
  92        6S          1.00413
  93        7PX         1.55299
  94        7PY         1.54312
  95        7PZ         1.54307
  96        8PX         0.41134
  97        8PY         0.42966
  98        8PZ         0.42977
  99        9PX         0.27621
 100        9PY         0.39003
 101        9PZ         0.39036
 102       10PX         0.82325
 103       10PY         1.09894
 104       10PZ         1.10112
 105       11PX         0.18291
 106       11PY         0.46599
 107       11PZ         0.47067
 108 9   Cl 1S          0.77737
 109        2S          1.18757
 110        3S          0.89323
 111        4S          1.09097
 112        5S          1.04266
 113        6S          1.00413
 114        7PX         1.54454
 115        7PY         1.54579
 116        7PZ         1.54885
 117        8PX         0.42708
 118        8PY         0.42469
 119        8PZ         0.41901
 120        9PX         0.37324
 121        9PY         0.35991
 122        9PZ         0.32347
 123       10PX         1.06147
 124       10PY         1.02161
 125       10PZ         0.94020
 126       11PX         0.43782
 127       11PY         0.40430
 128       11PZ         0.27752
          Condensed to atoms (all electrons):
               1          2          3          4          5          6
     1  Si  11.879668   0.369689   0.350393   0.350456   0.153888  -0.068111
     2  H    0.369689   0.802039  -0.023705  -0.023731  -0.006456  -0.001779
     3  H    0.350393  -0.023705   0.880993  -0.038817  -0.014827  -0.013264
     4  H    0.350456  -0.023731  -0.038817   0.880884  -0.014831  -0.013246
     5  O    0.153888  -0.006456  -0.014827  -0.014831   8.788645  -0.012894
     6  P   -0.068111  -0.001779  -0.013264  -0.013246  -0.012894  13.684213
     7  O    0.001074   0.000007  -0.000026  -0.000026  -0.031653   0.347808
     8  Cl  -0.001711   0.000504  -0.000469  -0.011889  -0.037456   0.062264
     9  Cl  -0.001826   0.000503  -0.011903  -0.000453  -0.037438   0.062320
               7          8          9
     1  Si   0.001074  -0.001711  -0.001826
     2  H    0.000007   0.000504   0.000503
     3  H   -0.000026  -0.000469  -0.011903
     4  H   -0.000026  -0.011889  -0.000453
     5  O   -0.031653  -0.037456  -0.037438
     6  P    0.347808   0.062264   0.062320
     7  O    8.324167  -0.046865  -0.046876
     8  Cl  -0.046865  17.196043  -0.055062
     9  Cl  -0.046876  -0.055062  17.196163
 Mulliken charges:
               1
     1  Si   0.966480
     2  H   -0.117072
     3  H   -0.128375
     4  H   -0.128347
     5  O   -0.786978
     6  P    0.952688
     7  O   -0.547609
     8  Cl  -0.105359
     9  Cl  -0.105428
 Sum of Mulliken charges =  -0.00000
 Mulliken charges with hydrogens summed into heavy atoms:
               1
     1  Si   0.592686
     5  O   -0.786978
     6  P    0.952688
     7  O   -0.547609
     8  Cl  -0.105359
     9  Cl  -0.105428

 Bonding Mulliken population analysis:
      Bonding Density Matrix:
                           1         2         3         4         5
   1 1   Si 1S          0.00000
   2        2S          0.00000   0.00000
   3        3S          0.00000   0.00000   0.00000
   4        4S          0.00000   0.00000   0.00000   0.00000
   5        5S          0.00000   0.00000   0.00000   0.00000   0.00000
   6        6S          0.00000   0.00000   0.00000   0.00000   0.00000
   7        7PX         0.00000   0.00000   0.00000   0.00000   0.00000
   8        7PY         0.00000   0.00000   0.00000   0.00000   0.00000
   9        7PZ         0.00000   0.00000   0.00000   0.00000   0.00000
  10        8PX         0.00000   0.00000   0.00000   0.00000   0.00000
  11        8PY         0.00000   0.00000   0.00000   0.00000   0.00000
  12        8PZ         0.00000   0.00000   0.00000   0.00000   0.00000
  13        9PX         0.00000   0.00000   0.00000   0.00000   0.00000
  14        9PY         0.00000   0.00000   0.00000   0.00000   0.00000
  15        9PZ         0.00000   0.00000   0.00000   0.00000   0.00000
  16       10PX         0.00000   0.00000   0.00000   0.00000   0.00000
  17       10PY         0.00000   0.00000   0.00000   0.00000   0.00000
  18       10PZ         0.00000   0.00000   0.00000   0.00000   0.00000
  19       11PX         0.00000   0.00000   0.00000   0.00000   0.00000
  20       11PY         0.00000   0.00000   0.00000   0.00000   0.00000
  21       11PZ         0.00000   0.00000   0.00000   0.00000   0.00000
  22 2   H  1S          0.00453   0.01242  -0.02849  -0.04551   0.08943
  23        2S          0.00817   0.02260  -0.05194  -0.08158   0.15620
  24        3S          0.00083   0.00216  -0.00585  -0.01176   0.03367
  25        4PX        -0.00041  -0.00118   0.00277   0.00421  -0.00741
  26        4PY         0.00112   0.00318  -0.00745  -0.01144   0.02050
  27        4PZ        -0.00003  -0.00009   0.00022   0.00026  -0.00025
  28 3   H  1S          0.00444   0.01219  -0.02799  -0.04455   0.08147
  29        2S          0.00740   0.02049  -0.04690  -0.07264   0.12509
  30        3S         -0.00073  -0.00218   0.00346   0.00084   0.01712
  31        4PX        -0.00031  -0.00089   0.00209   0.00316  -0.00512
  32        4PY        -0.00052  -0.00147   0.00346   0.00519  -0.00849
  33        4PZ         0.00083   0.00235  -0.00551  -0.00836   0.01369
  34 4   H  1S          0.00444   0.01219  -0.02800  -0.04455   0.08149
  35        2S          0.00740   0.02050  -0.04691  -0.07266   0.12516
  36        3S         -0.00073  -0.00218   0.00346   0.00084   0.01712
  37        4PX         0.00102   0.00291  -0.00683  -0.01033   0.01689
  38        4PY        -0.00005  -0.00013   0.00030   0.00043  -0.00072
  39        4PZ         0.00001   0.00003  -0.00005  -0.00010   0.00022
  40 5   O  1S         -0.00007  -0.00019   0.00024  -0.00012   0.00115
  41        2S         -0.00010  -0.00025   0.00019  -0.00024   0.00217
  42        2PX        -0.00120  -0.00330   0.00747   0.01221  -0.02395
  43        2PY        -0.00164  -0.00439   0.00916   0.01945  -0.04467
  44        2PZ        -0.00291  -0.00792   0.01749   0.03117  -0.06483
  45        3S          0.00000  -0.00017   0.00171   0.00307  -0.01083
  46        3PX        -0.00170  -0.00464   0.01047   0.01719  -0.03386
  47        3PY        -0.00280  -0.00757   0.01592   0.03216  -0.07064
  48        3PZ        -0.00439  -0.01194   0.02628   0.04662  -0.09596
  49        4S         -0.00220  -0.00605   0.01451   0.02591  -0.05907
  50        4PX        -0.00165  -0.00458   0.01030   0.01591  -0.02873
  51        4PY        -0.00123  -0.00323   0.00620   0.01789  -0.04870
  52        4PZ        -0.00341  -0.00935   0.02042   0.03632  -0.07494
  53 6   P  1S         -0.00003  -0.00008   0.00018   0.00030   0.00049
  54        2S         -0.00008  -0.00021   0.00048   0.00080   0.00143
  55        3S          0.00015   0.00040  -0.00089  -0.00146  -0.00328
  56        4S          0.00040   0.00110  -0.00249  -0.00412  -0.00259
  57        5S         -0.00078  -0.00210   0.00475   0.00859  -0.00228
  58        6S         -0.00079  -0.00227   0.00494   0.00325   0.01833
  59        7PX         0.00004   0.00010  -0.00014  -0.00063   0.00119
  60        7PY        -0.00018  -0.00047   0.00099   0.00230  -0.00623
  61        7PZ        -0.00004  -0.00011   0.00034   0.00030  -0.00164
  62        8PX         0.00007   0.00018  -0.00027  -0.00114   0.00219
  63        8PY        -0.00034  -0.00092   0.00191   0.00440  -0.01162
  64        8PZ        -0.00008  -0.00023   0.00065   0.00065  -0.00310
  65        9PX        -0.00006  -0.00015   0.00015   0.00116  -0.00225
  66        9PY         0.00058   0.00155  -0.00322  -0.00746   0.01906
  67        9PZ         0.00024   0.00064  -0.00161  -0.00239   0.00728
  68       10PX        -0.00018  -0.00046   0.00064   0.00238  -0.00185
  69       10PY         0.00072   0.00200  -0.00406  -0.00792   0.02011
  70       10PZ         0.00011   0.00040  -0.00130  -0.00067   0.00856
  71       11PX         0.00005   0.00014  -0.00016  -0.00119   0.00434
  72       11PY         0.00018   0.00058  -0.00145   0.00234  -0.01927
  73       11PZ         0.00018   0.00056  -0.00107  -0.00058  -0.00398
  74 7   O  1S          0.00001   0.00003  -0.00006  -0.00033   0.00288
  75        2S          0.00003   0.00007  -0.00009  -0.00065   0.00507
  76        2PX         0.00015   0.00039  -0.00062  -0.00286   0.00936
  77        2PY        -0.00085  -0.00227   0.00465   0.01160  -0.03570
  78        2PZ        -0.00024  -0.00067   0.00165   0.00198  -0.00520
  79        3S         -0.00018  -0.00045   0.00080   0.00333  -0.01857
  80        3PX         0.00021   0.00054  -0.00087  -0.00398   0.01297
  81        3PY        -0.00112  -0.00298   0.00606   0.01570  -0.04990
  82        3PZ        -0.00029  -0.00082   0.00207   0.00252  -0.00746
  83        4S          0.00017   0.00044  -0.00118  -0.00100  -0.01124
  84        4PX         0.00018   0.00047  -0.00065  -0.00386   0.01449
  85        4PY        -0.00153  -0.00410   0.00843   0.01953  -0.05454
  86        4PZ        -0.00057  -0.00160   0.00379   0.00490  -0.00763
  87 8   Cl 1S         -0.00003  -0.00007   0.00019   0.00018  -0.00032
  88        2S         -0.00007  -0.00021   0.00054   0.00052  -0.00092
  89        3S          0.00015   0.00044  -0.00113  -0.00110   0.00187
  90        4S          0.00027   0.00077  -0.00199  -0.00215   0.00408
  91        5S         -0.00046  -0.00128   0.00324   0.00421  -0.00819
  92        6S         -0.00042  -0.00117   0.00282   0.00326  -0.00559
  93        7PX         0.00014   0.00042  -0.00120  -0.00068  -0.00124
  94        7PY        -0.00038  -0.00105   0.00233   0.00462  -0.01335
  95        7PZ        -0.00032  -0.00090   0.00219   0.00310  -0.00870
  96        8PX        -0.00005  -0.00016   0.00044   0.00024   0.00047
  97        8PY         0.00015   0.00040  -0.00090  -0.00176   0.00502
  98        8PZ         0.00013   0.00035  -0.00085  -0.00120   0.00332
  99        9PX        -0.00017  -0.00050   0.00139   0.00087   0.00117
 100        9PY         0.00045   0.00123  -0.00277  -0.00549   0.01579
 101        9PZ         0.00036   0.00102  -0.00248  -0.00352   0.00990
 102       10PX        -0.00037  -0.00106   0.00305   0.00193   0.00230
 103       10PY         0.00106   0.00290  -0.00643  -0.01241   0.03469
 104       10PZ         0.00092   0.00256  -0.00616  -0.00875   0.02362
 105       11PX        -0.00027  -0.00079   0.00193   0.00168  -0.00040
 106       11PY         0.00052   0.00141  -0.00313  -0.00681   0.02068
 107       11PZ         0.00046   0.00127  -0.00313  -0.00430   0.01165
 108 9   Cl 1S         -0.00003  -0.00007   0.00019   0.00018  -0.00033
 109        2S         -0.00007  -0.00021   0.00054   0.00052  -0.00093
 110        3S          0.00015   0.00044  -0.00113  -0.00110   0.00188
 111        4S          0.00027   0.00077  -0.00199  -0.00216   0.00410
 112        5S         -0.00046  -0.00128   0.00324   0.00422  -0.00822
 113        6S         -0.00042  -0.00117   0.00282   0.00326  -0.00559
 114        7PX        -0.00013  -0.00039   0.00110   0.00060  -0.00043
 115        7PY        -0.00048  -0.00133   0.00314   0.00507  -0.01305
 116        7PZ        -0.00016  -0.00041   0.00079   0.00232  -0.00921
 117        8PX         0.00005   0.00015  -0.00042  -0.00024   0.00020
 118        8PY         0.00018   0.00051  -0.00121  -0.00193   0.00492
 119        8PZ         0.00006   0.00016  -0.00033  -0.00091   0.00349
 120        9PX         0.00014   0.00042  -0.00120  -0.00059   0.00029
 121        9PY         0.00056   0.00155  -0.00368  -0.00601   0.01546
 122        9PZ         0.00018   0.00046  -0.00091  -0.00264   0.01045
 123       10PX         0.00038   0.00109  -0.00304  -0.00199   0.00225
 124       10PY         0.00133   0.00366  -0.00858  -0.01379   0.03464
 125       10PZ         0.00046   0.00125  -0.00245  -0.00638   0.02368
 126       11PX         0.00022   0.00063  -0.00173  -0.00087  -0.00006
 127       11PY         0.00069   0.00191  -0.00441  -0.00769   0.02077
 128       11PZ         0.00016   0.00039  -0.00089  -0.00274   0.01145
                           6         7         8         9        10
   6        6S          0.00000
   7        7PX         0.00000   0.00000
   8        7PY         0.00000   0.00000   0.00000
   9        7PZ         0.00000   0.00000   0.00000   0.00000
  10        8PX         0.00000   0.00000   0.00000   0.00000   0.00000
  11        8PY         0.00000   0.00000   0.00000   0.00000   0.00000
  12        8PZ         0.00000   0.00000   0.00000   0.00000   0.00000
  13        9PX         0.00000   0.00000   0.00000   0.00000   0.00000
  14        9PY         0.00000   0.00000   0.00000   0.00000   0.00000
  15        9PZ         0.00000   0.00000   0.00000   0.00000   0.00000
  16       10PX         0.00000   0.00000   0.00000   0.00000   0.00000
  17       10PY         0.00000   0.00000   0.00000   0.00000   0.00000
  18       10PZ         0.00000   0.00000   0.00000   0.00000   0.00000
  19       11PX         0.00000   0.00000   0.00000   0.00000   0.00000
  20       11PY         0.00000   0.00000   0.00000   0.00000   0.00000
  21       11PZ         0.00000   0.00000   0.00000   0.00000   0.00000
  22 2   H  1S          0.03980  -0.00942   0.02339  -0.00187  -0.01636
  23        2S          0.06871  -0.01996   0.04574  -0.00619  -0.03470
  24        3S          0.01679  -0.00914   0.01928  -0.00378  -0.01591
  25        4PX        -0.00423   0.00031  -0.00198   0.00032   0.00053
  26        4PY         0.00952  -0.00236   0.00509  -0.00058  -0.00411
  27        4PZ        -0.00141   0.00010   0.00004  -0.00040   0.00017
  28 3   H  1S          0.05561  -0.00928  -0.01329   0.01927  -0.01608
  29        2S          0.08942  -0.01944  -0.02650   0.03835  -0.03366
  30        3S          0.01553  -0.01186  -0.01288   0.01826  -0.02057
  31        4PX        -0.00424   0.00029   0.00120  -0.00177   0.00049
  32        4PY        -0.00607   0.00117   0.00113  -0.00222   0.00202
  33        4PZ         0.00918  -0.00207  -0.00275   0.00395  -0.00358
  34 4   H  1S          0.05561   0.02510  -0.00114  -0.00177   0.04373
  35        2S          0.08945   0.05029  -0.00186  -0.00435   0.08765
  36        3S          0.01556   0.02493   0.00013  -0.00428   0.04341
  37        4PX         0.01177   0.00624  -0.00014  -0.00039   0.01087
  38        4PY        -0.00041   0.00022  -0.00043   0.00014   0.00038
  39        4PZ        -0.00063   0.00009   0.00013  -0.00045   0.00015
  40 5   O  1S          0.01801   0.00114   0.00129   0.00262   0.00212
  41        2S          0.02792   0.00182   0.00202   0.00414   0.00338
  42        2PX        -0.00471   0.00018   0.00455   0.00840   0.00048
  43        2PY         0.02117   0.00408   0.00394   0.01087   0.00748
  44        2PZ         0.00428   0.00813   0.01164   0.01664   0.01467
  45        3S         -0.07803  -0.00479  -0.00477  -0.01058  -0.00894
  46        3PX        -0.00564   0.00010   0.00652   0.01224   0.00042
  47        3PY         0.02707   0.00605   0.00586   0.01619   0.01109
  48        3PZ         0.00610   0.01197   0.01696   0.02426   0.02160
  49        4S         -0.08505  -0.00525  -0.00665  -0.01242  -0.00985
  50        4PX        -0.00095   0.00249   0.00731   0.01315   0.00462
  51        4PY         0.04582   0.00625   0.00608   0.01542   0.01137
  52        4PZ         0.02452   0.01254   0.01717   0.02742   0.02265
  53 6   P  1S         -0.00281  -0.00001   0.00017   0.00008   0.00001
  54        2S         -0.00781  -0.00002   0.00046   0.00022   0.00003
  55        3S          0.01561   0.00009  -0.00097  -0.00040   0.00002
  56        4S          0.02772   0.00004  -0.00207  -0.00112  -0.00019
  57        5S         -0.04076  -0.00014   0.00379   0.00193   0.00018
  58        6S         -0.03168  -0.00319   0.00773  -0.00075  -0.00530
  59        7PX         0.00123  -0.00038  -0.00041  -0.00048  -0.00070
  60        7PY         0.00308   0.00042   0.00038   0.00103   0.00077
  61        7PZ         0.00380  -0.00001  -0.00032  -0.00042  -0.00001
  62        8PX         0.00192  -0.00065  -0.00068  -0.00084  -0.00121
  63        8PY         0.00516   0.00078   0.00068   0.00188   0.00143
  64        8PZ         0.00613  -0.00000  -0.00051  -0.00067  -0.00000
  65        9PX        -0.00115   0.00082   0.00062   0.00097   0.00155
  66        9PY        -0.00726  -0.00118  -0.00128  -0.00293  -0.00217
  67        9PZ        -0.00608  -0.00007   0.00002   0.00035  -0.00014
  68       10PX        -0.01188   0.00253   0.00323   0.00215   0.00470
  69       10PY        -0.01912  -0.00074  -0.00225  -0.00386  -0.00148
  70       10PZ        -0.03050  -0.00013   0.00263   0.00366  -0.00019
  71       11PX        -0.00835  -0.00041  -0.00053  -0.00003  -0.00072
  72       11PY         0.02510   0.00189   0.00042   0.00366   0.00326
  73       11PZ         0.00070   0.00136  -0.00027   0.00147   0.00239
  74 7   O  1S         -0.00439   0.00001   0.00018   0.00013   0.00005
  75        2S         -0.00788   0.00002   0.00027   0.00018   0.00007
  76        2PX        -0.00684   0.00013  -0.00002  -0.00077   0.00023
  77        2PY         0.03162   0.00185   0.00245   0.00409   0.00322
  78        2PZ         0.00702   0.00031   0.00104   0.00169   0.00058
  79        3S          0.02527   0.00008  -0.00032  -0.00005   0.00003
  80        3PX        -0.00939   0.00014  -0.00012  -0.00106   0.00025
  81        3PY         0.04509   0.00266   0.00341   0.00588   0.00462
  82        3PZ         0.01060   0.00054   0.00134   0.00239   0.00099
  83        4S          0.03742  -0.00070  -0.00371  -0.00328  -0.00142
  84        4PX        -0.01388   0.00044   0.00081  -0.00060   0.00077
  85        4PY         0.04041   0.00277   0.00468   0.00660   0.00485
  86        4PZ         0.00058   0.00053   0.00339   0.00390   0.00105
  87 8   Cl 1S          0.00017  -0.00013   0.00005   0.00003  -0.00022
  88        2S          0.00051  -0.00038   0.00013   0.00009  -0.00062
  89        3S         -0.00076   0.00075  -0.00025  -0.00017   0.00122
  90        4S         -0.00007   0.00162  -0.00060  -0.00046   0.00272
  91        5S         -0.00290  -0.00329   0.00120   0.00104  -0.00568
  92        6S         -0.00503  -0.00125   0.00008  -0.00005  -0.00217
  93        7PX         0.00570   0.00013  -0.00031  -0.00032   0.00029
  94        7PY        -0.00078  -0.00225  -0.00009  -0.00025  -0.00400
  95        7PZ         0.00388  -0.00103   0.00034   0.00014  -0.00184
  96        8PX        -0.00225  -0.00005   0.00011   0.00012  -0.00011
  97        8PY         0.00030   0.00085   0.00005   0.00010   0.00151
  98        8PZ        -0.00149   0.00039  -0.00012  -0.00006   0.00069
  99        9PX        -0.00555  -0.00012   0.00037   0.00036  -0.00028
 100        9PY         0.00141   0.00277  -0.00004   0.00020   0.00492
 101        9PZ        -0.00384   0.00130  -0.00046  -0.00014   0.00233
 102       10PX        -0.01828  -0.00052   0.00082   0.00104  -0.00109
 103       10PY         0.00303   0.00595   0.00054   0.00070   0.01060
 104       10PZ        -0.00998   0.00278  -0.00084  -0.00052   0.00497
 105       11PX        -0.00474   0.00121   0.00024   0.00034   0.00204
 106       11PY        -0.00124   0.00329  -0.00051   0.00034   0.00588
 107       11PZ        -0.00217   0.00125  -0.00091  -0.00011   0.00225
 108 9   Cl 1S          0.00018   0.00005   0.00011  -0.00008   0.00008
 109        2S          0.00052   0.00014   0.00031  -0.00023   0.00022
 110        3S         -0.00079  -0.00027  -0.00061   0.00046  -0.00041
 111        4S         -0.00012  -0.00064  -0.00140   0.00093  -0.00105
 112        5S         -0.00283   0.00139   0.00285  -0.00182   0.00240
 113        6S         -0.00501   0.00035   0.00065  -0.00103   0.00058
 114        7PX         0.00159   0.00002   0.00037   0.00042   0.00009
 115        7PY        -0.00230   0.00066   0.00119  -0.00179   0.00126
 116        7PZ         0.00632   0.00019   0.00033  -0.00102   0.00032
 117        8PX        -0.00059  -0.00001  -0.00014  -0.00017  -0.00004
 118        8PY         0.00091  -0.00025  -0.00043   0.00068  -0.00048
 119        8PZ        -0.00248  -0.00007  -0.00012   0.00039  -0.00012
 120        9PX        -0.00190   0.00002  -0.00041  -0.00045  -0.00002
 121        9PY         0.00277  -0.00080  -0.00159   0.00213  -0.00152
 122        9PZ        -0.00599  -0.00025  -0.00051   0.00126  -0.00042
 123       10PX        -0.00334  -0.00022  -0.00118  -0.00118  -0.00055
 124       10PY         0.00850  -0.00198  -0.00301   0.00485  -0.00378
 125       10PZ        -0.01895  -0.00044  -0.00071   0.00269  -0.00071
 126       11PX         0.00043   0.00028  -0.00015  -0.00111   0.00042
 127       11PY         0.00068  -0.00040  -0.00183   0.00189  -0.00086
 128       11PZ        -0.00527  -0.00041  -0.00146   0.00214  -0.00072
                          11        12        13        14        15
  11        8PY         0.00000
  12        8PZ         0.00000   0.00000
  13        9PX         0.00000   0.00000   0.00000
  14        9PY         0.00000   0.00000   0.00000   0.00000
  15        9PZ         0.00000   0.00000   0.00000   0.00000   0.00000
  16       10PX         0.00000   0.00000   0.00000   0.00000   0.00000
  17       10PY         0.00000   0.00000   0.00000   0.00000   0.00000
  18       10PZ         0.00000   0.00000   0.00000   0.00000   0.00000
  19       11PX         0.00000   0.00000   0.00000   0.00000   0.00000
  20       11PY         0.00000   0.00000   0.00000   0.00000   0.00000
  21       11PZ         0.00000   0.00000   0.00000   0.00000   0.00000
  22 2   H  1S          0.04073  -0.00320   0.02263  -0.05555   0.00487
  23        2S          0.07968  -0.01066   0.04839  -0.11033   0.01531
  24        3S          0.03352  -0.00662   0.02114  -0.04192   0.01031
  25        4PX        -0.00346   0.00054  -0.00036   0.00466  -0.00070
  26        4PY         0.00886  -0.00100   0.00557  -0.01155   0.00143
  27        4PZ         0.00007  -0.00072  -0.00018  -0.00005   0.00140
  28 3   H  1S         -0.02308   0.03367   0.02225   0.03135  -0.04668
  29        2S         -0.04601   0.06705   0.04661   0.06296  -0.09392
  30        3S         -0.02240   0.03183   0.02819   0.03204  -0.04199
  31        4PX         0.00208  -0.00310  -0.00029  -0.00278   0.00433
  32        4PY         0.00194  -0.00389  -0.00271  -0.00221   0.00537
  33        4PZ        -0.00477   0.00689   0.00490   0.00628  -0.00904
  34 4   H  1S         -0.00193  -0.00296  -0.06031   0.00216   0.00388
  35        2S         -0.00313  -0.00726  -0.12189   0.00340   0.00929
  36        3S          0.00023  -0.00736  -0.05878   0.00128   0.01128
  37        4PX        -0.00023  -0.00065  -0.01441   0.00010   0.00076
  38        4PY        -0.00075   0.00024  -0.00051   0.00135  -0.00029
  39        4PZ         0.00022  -0.00080  -0.00012  -0.00032   0.00152
  40 5   O  1S          0.00243   0.00486  -0.00228  -0.00386  -0.00596
  41        2S          0.00384   0.00774  -0.00360  -0.00621  -0.00946
  42        2PX         0.00785   0.01489  -0.00718  -0.00821  -0.01867
  43        2PY         0.00729   0.01980  -0.01109  -0.01332  -0.02656
  44        2PZ         0.02040   0.02988  -0.02031  -0.02186  -0.04448
  45        3S         -0.00936  -0.02001   0.00881   0.01647   0.02387
  46        3PX         0.01127   0.02170  -0.00969  -0.01178  -0.02696
  47        3PY         0.01083   0.02948  -0.01638  -0.01948  -0.03952
  48        3PZ         0.02978   0.04358  -0.02960  -0.03198  -0.06420
  49        4S         -0.01252  -0.02333   0.01205   0.02063   0.03162
  50        4PX         0.01264   0.02340  -0.01589  -0.01380  -0.03014
  51        4PY         0.01121   0.02803  -0.01697  -0.02009  -0.03795
  52        4PZ         0.03014   0.04918  -0.03194  -0.03278  -0.07346
  53 6   P  1S          0.00029   0.00019  -0.00005  -0.00047  -0.00035
  54        2S          0.00081   0.00050  -0.00012  -0.00127  -0.00093
  55        3S         -0.00171  -0.00095   0.00013   0.00268   0.00175
  56        4S         -0.00367  -0.00241   0.00042   0.00615   0.00421
  57        5S          0.00678   0.00416   0.00002  -0.01304  -0.00740
  58        6S          0.01341  -0.00089   0.00652  -0.01637   0.00117
  59        7PX        -0.00075  -0.00088   0.00146   0.00106   0.00095
  60        7PY         0.00070   0.00190  -0.00055  -0.00208  -0.00282
  61        7PZ        -0.00057  -0.00077   0.00002  -0.00018   0.00118
  62        8PX        -0.00124  -0.00153   0.00250   0.00175   0.00166
  63        8PY         0.00126   0.00346  -0.00111  -0.00374  -0.00517
  64        8PZ        -0.00090  -0.00123   0.00002  -0.00050   0.00186
  65        9PX         0.00114   0.00177  -0.00302  -0.00155  -0.00191
  66        9PY        -0.00239  -0.00542   0.00199   0.00613   0.00816
  67        9PZ        -0.00001   0.00065   0.00013   0.00237  -0.00084
  68       10PX         0.00573   0.00396  -0.00956  -0.00722  -0.00400
  69       10PY        -0.00420  -0.00734  -0.00072   0.01110   0.01079
  70       10PZ         0.00448   0.00656  -0.00026   0.00013  -0.01000
  71       11PX        -0.00101  -0.00007  -0.00146   0.00115   0.00015
  72       11PY         0.00094   0.00647  -0.00381  -0.00345  -0.00756
  73       11PZ        -0.00049   0.00256  -0.00270   0.00051  -0.00523
  74 7   O  1S          0.00029   0.00025  -0.00029   0.00018  -0.00038
  75        2S          0.00041   0.00035  -0.00046   0.00046  -0.00049
  76        2PX        -0.00014  -0.00136  -0.00011   0.00033   0.00126
  77        2PY         0.00456   0.00731  -0.00341  -0.00806  -0.00977
  78        2PZ         0.00181   0.00299  -0.00090  -0.00365  -0.00433
  79        3S         -0.00024  -0.00009   0.00094  -0.00290  -0.00013
  80        3PX        -0.00036  -0.00187  -0.00021   0.00056   0.00178
  81        3PY         0.00635   0.01047  -0.00491  -0.01131  -0.01391
  82        3PZ         0.00234   0.00422  -0.00137  -0.00496  -0.00619
  83        4S         -0.00619  -0.00587   0.00403   0.00365   0.00868
  84        4PX         0.00123  -0.00104  -0.00056  -0.00056   0.00024
  85        4PY         0.00859   0.01181  -0.00542  -0.01358  -0.01616
  86        4PZ         0.00589   0.00693  -0.00257  -0.00819  -0.00981
  87 8   Cl 1S          0.00009   0.00006   0.00024  -0.00020  -0.00010
  88        2S          0.00026   0.00016   0.00068  -0.00058  -0.00028
  89        3S         -0.00050  -0.00029  -0.00132   0.00110   0.00049
  90        4S         -0.00111  -0.00081  -0.00337   0.00191   0.00128
  91        5S          0.00206   0.00180   0.00768  -0.00247  -0.00251
  92        6S          0.00010  -0.00014   0.00104  -0.00175  -0.00010
  93        7PX        -0.00045  -0.00058  -0.00021   0.00020   0.00137
  94        7PY        -0.00011  -0.00035   0.00629  -0.00068  -0.00032
  95        7PZ         0.00047   0.00023   0.00311  -0.00045  -0.00075
  96        8PX         0.00016   0.00023   0.00007  -0.00009  -0.00053
  97        8PY         0.00007   0.00015  -0.00236   0.00024   0.00010
  98        8PZ        -0.00017  -0.00010  -0.00116   0.00017   0.00030
  99        9PX         0.00054   0.00065   0.00019  -0.00006  -0.00146
 100        9PY        -0.00012   0.00026  -0.00766   0.00097   0.00051
 101        9PZ        -0.00066  -0.00023  -0.00385   0.00058   0.00078
 102       10PX         0.00119   0.00191   0.00071  -0.00108  -0.00424
 103       10PY         0.00082   0.00102  -0.01639   0.00128   0.00079
 104       10PZ        -0.00116  -0.00091  -0.00827   0.00118   0.00245
 105       11PX         0.00031   0.00061  -0.00389   0.00028  -0.00118
 106       11PY        -0.00098   0.00048  -0.00996   0.00270   0.00046
 107       11PZ        -0.00138  -0.00017  -0.00426   0.00150   0.00116
 108 9   Cl 1S          0.00020  -0.00012  -0.00007  -0.00031   0.00009
 109        2S          0.00056  -0.00035  -0.00018  -0.00088   0.00025
 110        3S         -0.00108   0.00071   0.00033   0.00168  -0.00052
 111        4S         -0.00244   0.00151   0.00127   0.00356  -0.00157
 112        5S          0.00491  -0.00315  -0.00346  -0.00641   0.00431
 113        6S          0.00108  -0.00184   0.00037  -0.00200   0.00031
 114        7PX         0.00052   0.00066  -0.00059  -0.00020  -0.00077
 115        7PY         0.00212  -0.00319  -0.00264  -0.00392   0.00432
 116        7PZ         0.00060  -0.00178  -0.00042  -0.00154   0.00287
 117        8PX        -0.00020  -0.00026   0.00024   0.00009   0.00031
 118        8PY        -0.00077   0.00121   0.00100   0.00147  -0.00162
 119        8PZ        -0.00022   0.00067   0.00016   0.00056  -0.00109
 120        9PX        -0.00056  -0.00070   0.00059   0.00011   0.00076
 121        9PY        -0.00281   0.00379   0.00316   0.00480  -0.00526
 122        9PZ        -0.00091   0.00219   0.00056   0.00212  -0.00343
 123       10PX        -0.00174  -0.00186   0.00195   0.00117   0.00229
 124       10PY        -0.00537   0.00863   0.00735   0.01030  -0.01119
 125       10PZ        -0.00128   0.00468   0.00110   0.00340  -0.00774
 126       11PX        -0.00005  -0.00181   0.00017  -0.00097   0.00255
 127       11PY        -0.00328   0.00341   0.00244   0.00612  -0.00494
 128       11PZ        -0.00256   0.00373   0.00172   0.00525  -0.00630
                          16        17        18        19        20
  16       10PX         0.00000
  17       10PY         0.00000   0.00000
  18       10PZ         0.00000   0.00000   0.00000
  19       11PX         0.00000   0.00000   0.00000   0.00000
  20       11PY         0.00000   0.00000   0.00000   0.00000   0.00000
  21       11PZ         0.00000   0.00000   0.00000   0.00000   0.00000
  22 2   H  1S          0.03233  -0.07646   0.00866   0.00970  -0.02739
  23        2S          0.06560  -0.14600   0.02284   0.01997  -0.05664
  24        3S          0.02780  -0.05715   0.01240   0.00532  -0.00739
  25        4PX        -0.00068   0.00576  -0.00105  -0.00043   0.00192
  26        4PY         0.00721  -0.01464   0.00216   0.00195  -0.00565
  27        4PZ        -0.00022  -0.00020   0.00153  -0.00001  -0.00028
  28 3   H  1S          0.03076   0.04801  -0.05746   0.00127   0.01572
  29        2S          0.06334   0.09014  -0.11160   0.00291   0.02697
  30        3S          0.03473   0.03704  -0.05156   0.00120   0.01110
  31        4PX        -0.00068  -0.00354   0.00476   0.00033  -0.00129
  32        4PY        -0.00344  -0.00307   0.00604  -0.00014  -0.00093
  33        4PZ         0.00650   0.00905  -0.01089   0.00025   0.00271
  34 4   H  1S         -0.07980   0.00892   0.01023  -0.01681   0.00930
  35        2S         -0.15474   0.01304   0.02193  -0.03103   0.01495
  36        3S         -0.07114  -0.00043   0.01329  -0.00850   0.00764
  37        4PX        -0.01798   0.00113   0.00208  -0.00349   0.00178
  38        4PY        -0.00087   0.00164  -0.00023  -0.00031   0.00057
  39        4PZ        -0.00077  -0.00012   0.00170  -0.00019  -0.00016
  40 5   O  1S         -0.00084   0.00715   0.00273  -0.00210  -0.00175
  41        2S         -0.00157   0.01158   0.00409  -0.00343  -0.00276
  42        2PX         0.03062  -0.02015  -0.02858   0.01450   0.00139
  43        2PY        -0.00908   0.00013  -0.03834   0.00359   0.00373
  44        2PZ        -0.02222  -0.05651  -0.02781  -0.00817  -0.00761
  45        3S          0.00617  -0.03771  -0.01158   0.00938   0.00742
  46        3PX         0.04387  -0.02807  -0.04041   0.02016   0.00182
  47        3PY        -0.01360  -0.00166  -0.05694   0.00530   0.00440
  48        3PZ        -0.03209  -0.08068  -0.04017  -0.01132  -0.01128
  49        4S          0.00062  -0.03214  -0.01742   0.01720   0.01349
  50        4PX         0.04232  -0.02908  -0.04124   0.02061   0.00279
  51        4PY        -0.01684  -0.00190  -0.06156   0.00863   0.00834
  52        4PZ        -0.03419  -0.08167  -0.04558  -0.01542  -0.00980
  53 6   P  1S          0.00019  -0.00074  -0.00012   0.00118  -0.00570
  54        2S          0.00055  -0.00209  -0.00031   0.00325  -0.01571
  55        3S         -0.00118   0.00409   0.00043  -0.00668   0.03211
  56        4S         -0.00193   0.00794   0.00141  -0.01229   0.05903
  57        5S          0.00236  -0.01208  -0.00304   0.02067  -0.09437
  58        6S          0.01896  -0.02236   0.01805   0.01452  -0.07668
  59        7PX        -0.00050   0.00177   0.00249   0.00108  -0.00225
  60        7PY        -0.00369   0.00228  -0.00393  -0.00200   0.00418
  61        7PZ        -0.00065   0.00502   0.00042  -0.00072  -0.00175
  62        8PX        -0.00066   0.00287   0.00441   0.00175  -0.00405
  63        8PY        -0.00664   0.00345  -0.00754  -0.00324   0.00691
  64        8PZ        -0.00107   0.00803   0.00054  -0.00103  -0.00336
  65        9PX        -0.00037  -0.00230  -0.00526  -0.00207   0.00545
  66        9PY         0.00918  -0.00175   0.01284   0.00297  -0.00727
  67        9PZ         0.00134  -0.00593   0.00079   0.00048   0.00548
  68       10PX         0.00503  -0.01589  -0.00768  -0.00984   0.00843
  69       10PY         0.00954  -0.01807   0.00290   0.01603  -0.02815
  70       10PZ         0.00695  -0.03875  -0.00679   0.00826   0.00286
  71       11PX         0.00707   0.00060   0.00043  -0.01276  -0.00368
  72       11PY        -0.00986  -0.00235  -0.02152   0.00110   0.00977
  73       11PZ        -0.00558  -0.00450  -0.00463   0.00399   0.00797
  74 7   O  1S          0.00116  -0.00238   0.00053   0.00222  -0.00733
  75        2S          0.00193  -0.00401   0.00086   0.00366  -0.01198
  76        2PX        -0.00061   0.00262   0.00886  -0.02464  -0.00735
  77        2PY        -0.01376  -0.00493  -0.02242  -0.00047   0.00606
  78        2PZ        -0.00057   0.00439  -0.00349   0.00587   0.00769
  79        3S         -0.00592   0.00997  -0.00395  -0.01065   0.03468
  80        3PX        -0.00055   0.00424   0.01194  -0.03444  -0.00985
  81        3PY        -0.01930  -0.00698  -0.03193  -0.00054   0.00861
  82        3PZ        -0.00161   0.00658  -0.00517   0.00800   0.01141
  83        4S         -0.00839   0.03423   0.00594  -0.01638   0.05043
  84        4PX        -0.00138  -0.00240   0.01287  -0.03555  -0.01674
  85        4PY        -0.01937  -0.01411  -0.03401   0.00062   0.00388
  86        4PZ         0.00309  -0.00623  -0.00859   0.01317  -0.00036
  87 8   Cl 1S          0.00064   0.00035   0.00010  -0.00068  -0.00066
  88        2S          0.00184   0.00101   0.00027  -0.00196  -0.00186
  89        3S         -0.00362  -0.00175  -0.00049   0.00401   0.00297
  90        4S         -0.00741  -0.00243  -0.00052   0.00628   0.00574
  91        5S          0.01294   0.00097  -0.00067  -0.00688  -0.00497
  92        6S          0.01053  -0.00072  -0.00089  -0.01821   0.00683
  93        7PX        -0.00266   0.00075  -0.00206   0.00060   0.01608
  94        7PY         0.00855   0.00216   0.00221   0.00351   0.01064
  95        7PZ         0.00463  -0.00029   0.00408   0.00051   0.01115
  96        8PX         0.00111  -0.00034   0.00075  -0.00030  -0.00610
  97        8PY        -0.00322  -0.00085  -0.00084  -0.00134  -0.00406
  98        8PZ        -0.00175   0.00011  -0.00153  -0.00019  -0.00426
  99        9PX         0.00226  -0.00070   0.00226  -0.00043  -0.01654
 100        9PY        -0.01050  -0.00186  -0.00232  -0.00416  -0.01188
 101        9PZ        -0.00565   0.00077  -0.00475  -0.00079  -0.01259
 102       10PX         0.01071  -0.00402   0.00389  -0.00418  -0.04160
 103       10PY        -0.02314  -0.00601  -0.00511  -0.00979  -0.02831
 104       10PZ        -0.01278   0.00102  -0.00960  -0.00168  -0.02969
 105       11PX        -0.00111  -0.00161   0.00137  -0.00553  -0.00840
 106       11PY        -0.01051   0.00016  -0.00196  -0.00476  -0.01242
 107       11PZ        -0.00561   0.00483  -0.00727  -0.00078  -0.01462
 108 9   Cl 1S         -0.00030   0.00002   0.00068   0.00058  -0.00022
 109        2S         -0.00087   0.00006   0.00194   0.00166  -0.00059
 110        3S          0.00163   0.00010  -0.00371  -0.00316   0.00045
 111        4S          0.00320   0.00131  -0.00702  -0.00527   0.00168
 112        5S         -0.00533  -0.00547   0.01053   0.00557  -0.00061
 113        6S         -0.00396  -0.00585   0.00798   0.00819   0.01601
 114        7PX         0.00291  -0.00073   0.00162  -0.00055  -0.00099
 115        7PY        -0.00065  -0.00234   0.01035  -0.00682   0.00110
 116        7PZ        -0.00056  -0.00006   0.00296  -0.00886   0.01804
 117        8PX        -0.00108   0.00034  -0.00063   0.00019   0.00035
 118        8PY         0.00027   0.00090  -0.00394   0.00259  -0.00046
 119        8PZ         0.00020  -0.00007  -0.00107   0.00340  -0.00683
 120        9PX        -0.00355   0.00067  -0.00166   0.00097   0.00068
 121        9PY         0.00075   0.00334  -0.01186   0.00795  -0.00169
 122        9PZ         0.00069   0.00097  -0.00409   0.00956  -0.01918
 123       10PX        -0.00676   0.00382  -0.00459   0.00083   0.00172
 124       10PY         0.00350   0.00843  -0.02821   0.01787  -0.00384
 125       10PZ         0.00099  -0.00254  -0.00639   0.02449  -0.04588
 126       11PX        -0.00676   0.00178  -0.00092   0.00334  -0.00334
 127       11PY        -0.00131   0.00533  -0.00963   0.00665  -0.00767
 128       11PZ        -0.00081   0.00327  -0.00674   0.01010  -0.01203
                          21        22        23        24        25
  21       11PZ         0.00000
  22 2   H  1S          0.00001   0.00000
  23        2S         -0.00009   0.00000   0.00000
  24        3S          0.00444   0.00000   0.00000   0.00000
  25        4PX        -0.00003   0.00000   0.00000   0.00000   0.00000
  26        4PY        -0.00024   0.00000   0.00000   0.00000   0.00000
  27        4PZ         0.00009   0.00000   0.00000   0.00000   0.00000
  28 3   H  1S         -0.01100  -0.00991  -0.02679  -0.01536   0.00167
  29        2S         -0.02123  -0.02509  -0.06376  -0.03556   0.00414
  30        3S         -0.00353  -0.01792  -0.04262  -0.01896   0.00292
  31        4PX         0.00081   0.00175   0.00449   0.00231  -0.00022
  32        4PY         0.00104  -0.00002   0.00087   0.00101  -0.00013
  33        4PZ        -0.00205  -0.00227  -0.00588  -0.00331   0.00040
  34 4   H  1S          0.00007  -0.00991  -0.02679  -0.01538  -0.00067
  35        2S         -0.00046  -0.02510  -0.06378  -0.03560  -0.00093
  36        3S          0.00241  -0.01792  -0.04264  -0.01900   0.00003
  37        4PX        -0.00019  -0.00243  -0.00671  -0.00396  -0.00016
  38        4PY        -0.00004  -0.00149  -0.00309  -0.00121   0.00014
  39        4PZ         0.00026   0.00029   0.00098   0.00052  -0.00004
  40 5   O  1S         -0.00445   0.00234   0.00909  -0.00176  -0.00057
  41        2S         -0.00720   0.00374   0.01491  -0.00247  -0.00092
  42        2PX        -0.00951   0.00045  -0.01186  -0.00428  -0.00027
  43        2PY        -0.00391   0.00784   0.02703   0.00948  -0.00236
  44        2PZ         0.00300   0.00528  -0.00369  -0.00146   0.00052
  45        3S          0.01962  -0.01075  -0.04586   0.00555   0.00274
  46        3PX        -0.01344   0.00082  -0.01617  -0.00611  -0.00039
  47        3PY        -0.00543   0.01073   0.03779   0.01298  -0.00334
  48        3PZ         0.00391   0.00756  -0.00449  -0.00242   0.00067
  49        4S          0.03589  -0.01806  -0.05688   0.00290   0.00301
  50        4PX        -0.01889   0.00112  -0.01682  -0.00649  -0.00062
  51        4PY        -0.00008   0.01499   0.04410   0.01589  -0.00385
  52        4PZ         0.00220   0.01052  -0.00185  -0.00133   0.00056
  53 6   P  1S         -0.00136   0.00049   0.00244  -0.00337  -0.00005
  54        2S         -0.00374   0.00135   0.00672  -0.00930  -0.00012
  55        3S          0.00758  -0.00295  -0.01423   0.01884   0.00028
  56        4S          0.01393  -0.00585  -0.02720   0.03419   0.00063
  57        5S         -0.02056   0.01178   0.05059  -0.05217  -0.00153
  58        6S         -0.02049   0.01554   0.04448  -0.03694  -0.00092
  59        7PX        -0.00086  -0.00060  -0.00078  -0.00257   0.00019
  60        7PY        -0.00133   0.00238   0.00843   0.00700  -0.00052
  61        7PZ        -0.00136   0.00039   0.00356  -0.00019  -0.00029
  62        8PX        -0.00149  -0.00101  -0.00140  -0.00453   0.00034
  63        8PY        -0.00201   0.00415   0.01459   0.01187  -0.00091
  64        8PZ        -0.00237   0.00072   0.00608  -0.00058  -0.00049
  65        9PX         0.00191   0.00125   0.00230   0.00593  -0.00042
  66        9PY         0.00139  -0.00577  -0.01921  -0.01405   0.00124
  67        9PZ         0.00262  -0.00128  -0.00724   0.00163   0.00053
  68       10PX         0.00385   0.00315   0.00074   0.01180  -0.00070
  69       10PY         0.01522  -0.01272  -0.04359  -0.04234   0.00248
  70       10PZ         0.00585  -0.00214  -0.02376  -0.00508   0.00194
  71       11PX         0.00121  -0.00238  -0.00713  -0.00157   0.00020
  72       11PY         0.01592   0.00276   0.00492   0.00655  -0.00076
  73       11PZ        -0.00366  -0.00226  -0.00870   0.00112   0.00042
  74 7   O  1S         -0.00060  -0.00012  -0.00020  -0.00595   0.00009
  75        2S         -0.00093  -0.00022  -0.00037  -0.00963   0.00016
  76        2PX         0.00193  -0.00035   0.00030   0.00192   0.00014
  77        2PY         0.01903   0.00504   0.01184   0.00698  -0.00098
  78        2PZ        -0.01430   0.00232   0.00729   0.00698  -0.00060
  79        3S          0.00261   0.00101   0.00127   0.02787  -0.00049
  80        3PX         0.00266  -0.00056   0.00038   0.00289   0.00016
  81        3PY         0.02677   0.00711   0.01646   0.00975  -0.00139
  82        3PZ        -0.01979   0.00315   0.01009   0.01010  -0.00085
  83        4S          0.00236  -0.00052   0.00536   0.04026  -0.00095
  84        4PX         0.00319  -0.00018  -0.00054  -0.00151   0.00042
  85        4PY         0.02815   0.00791   0.01709   0.00693  -0.00129
  86        4PZ        -0.02199   0.00423   0.00890   0.00124  -0.00064
  87 8   Cl 1S          0.00005   0.00005   0.00036  -0.00030   0.00000
  88        2S          0.00015   0.00015   0.00101  -0.00085   0.00001
  89        3S         -0.00051  -0.00030  -0.00179   0.00109  -0.00003
  90        4S         -0.00056  -0.00085  -0.00384   0.00188  -0.00007
  91        5S          0.00112   0.00229   0.00673   0.00094   0.00011
  92        6S          0.00644  -0.00047  -0.00405   0.00880   0.00017
  93        7PX         0.00481   0.00127   0.00170   0.01224  -0.00032
  94        7PY        -0.00221   0.00108   0.00313   0.00962   0.00022
  95        7PZ        -0.00173   0.00215   0.00344   0.01175  -0.00007
  96        8PX        -0.00181  -0.00049  -0.00070  -0.00463   0.00012
  97        8PY         0.00085  -0.00039  -0.00113  -0.00364  -0.00009
  98        8PZ         0.00065  -0.00081  -0.00128  -0.00447   0.00002
  99        9PX        -0.00513  -0.00142  -0.00199  -0.01276   0.00036
 100        9PY         0.00238  -0.00149  -0.00399  -0.01113  -0.00025
 101        9PZ         0.00201  -0.00262  -0.00418  -0.01354   0.00007
 102       10PX        -0.01185  -0.00339  -0.00596  -0.03099   0.00089
 103       10PY         0.00608  -0.00232  -0.00683  -0.02484  -0.00061
 104       10PZ         0.00428  -0.00557  -0.00864  -0.03091   0.00018
 105       11PX        -0.00223  -0.00318  -0.00830  -0.00808   0.00041
 106       11PY        -0.00067  -0.00355  -0.00875  -0.01380  -0.00020
 107       11PZ         0.00308  -0.00352  -0.00446  -0.01651  -0.00004
 108 9   Cl 1S         -0.00072   0.00005   0.00036  -0.00031  -0.00002
 109        2S         -0.00207   0.00015   0.00101  -0.00085  -0.00005
 110        3S          0.00388  -0.00030  -0.00179   0.00111   0.00010
 111        4S          0.00652  -0.00085  -0.00384   0.00191   0.00024
 112        5S         -0.00651   0.00229   0.00672   0.00091  -0.00051
 113        6S         -0.00969  -0.00045  -0.00399   0.00872   0.00024
 114        7PX        -0.00253   0.00082   0.00077   0.00097  -0.00011
 115        7PY         0.00130   0.00092   0.00278   0.00564  -0.00028
 116        7PZ         0.00892   0.00242   0.00398   0.01866  -0.00048
 117        8PX         0.00098  -0.00031  -0.00028  -0.00039   0.00004
 118        8PY        -0.00048  -0.00032  -0.00098  -0.00214   0.00010
 119        8PZ        -0.00344  -0.00091  -0.00152  -0.00707   0.00019
 120        9PX         0.00254  -0.00096  -0.00086  -0.00155   0.00013
 121        9PY        -0.00205  -0.00132  -0.00357  -0.00716   0.00035
 122        9PZ        -0.00954  -0.00289  -0.00484  -0.02041   0.00053
 123       10PX         0.00694  -0.00233  -0.00185  -0.00316   0.00024
 124       10PY        -0.00322  -0.00195  -0.00536  -0.01501   0.00056
 125       10PZ        -0.02510  -0.00621  -0.01108  -0.04797   0.00137
 126       11PX         0.00365  -0.00013   0.00327  -0.00431  -0.00006
 127       11PY        -0.00371  -0.00246  -0.00463  -0.01241   0.00052
 128       11PZ        -0.01049  -0.00536  -0.01146  -0.01886   0.00096
                          26        27        28        29        30
  26        4PY         0.00000
  27        4PZ         0.00000   0.00000
  28 3   H  1S         -0.00193  -0.00125   0.00000
  29        2S         -0.00528  -0.00250   0.00000   0.00000
  30        3S         -0.00427  -0.00124   0.00000   0.00000   0.00000
  31        4PX         0.00045   0.00011   0.00000   0.00000   0.00000
  32        4PY        -0.00000   0.00016   0.00000   0.00000   0.00000
  33        4PZ        -0.00046  -0.00024   0.00000   0.00000   0.00000
  34 4   H  1S         -0.00275   0.00018  -0.01044  -0.02963  -0.02698
  35        2S         -0.00708   0.00061  -0.02962  -0.07518  -0.06073
  36        3S         -0.00529   0.00053  -0.02698  -0.06071  -0.03719
  37        4PX        -0.00075   0.00007  -0.00315  -0.00847  -0.00727
  38        4PY        -0.00033  -0.00000   0.00064   0.00152   0.00091
  39        4PZ         0.00012   0.00003  -0.00132  -0.00268  -0.00126
  40 5   O  1S          0.00123  -0.00022   0.00103   0.00121  -0.00703
  41        2S          0.00209  -0.00029   0.00155   0.00203  -0.01128
  42        2PX        -0.00255   0.00041  -0.00151  -0.01335  -0.01924
  43        2PY         0.00328  -0.00115  -0.00023  -0.00959  -0.01328
  44        2PZ        -0.00145  -0.00142   0.01549   0.05022   0.03773
  45        3S         -0.00669   0.00060  -0.00315  -0.00288   0.03340
  46        3PX        -0.00352   0.00057  -0.00159  -0.01762  -0.02663
  47        3PY         0.00453  -0.00169  -0.00043  -0.01316  -0.01774
  48        3PZ        -0.00198  -0.00203   0.02140   0.07020   0.05249
  49        4S         -0.00840   0.00006  -0.01228  -0.02425   0.03804
  50        4PX        -0.00360   0.00071  -0.00280  -0.02184  -0.03601
  51        4PY         0.00515  -0.00197   0.00115  -0.01508  -0.01642
  52        4PZ        -0.00154  -0.00231   0.03156   0.09103   0.06074
  53 6   P  1S          0.00021   0.00005  -0.00043   0.00014  -0.00085
  54        2S          0.00059   0.00014  -0.00121   0.00042  -0.00235
  55        3S         -0.00128  -0.00027   0.00255  -0.00056   0.00501
  56        4S         -0.00252  -0.00042   0.00482  -0.00032   0.00932
  57        5S          0.00506   0.00042  -0.00912  -0.00471  -0.01674
  58        6S          0.00426   0.00096  -0.00980  -0.00599  -0.01716
  59        7PX        -0.00009  -0.00004   0.00048   0.00175   0.00099
  60        7PY         0.00125  -0.00024  -0.00031  -0.00199  -0.00261
  61        7PZ         0.00046  -0.00002  -0.00151  -0.00415  -0.00394
  62        8PX        -0.00017  -0.00007   0.00076   0.00291   0.00169
  63        8PY         0.00214  -0.00043  -0.00056  -0.00349  -0.00412
  64        8PZ         0.00077  -0.00004  -0.00256  -0.00691  -0.00646
  65        9PX         0.00033   0.00001  -0.00068  -0.00290  -0.00205
  66        9PY        -0.00268   0.00066   0.00098   0.00515   0.00396
  67        9PZ        -0.00081   0.00009   0.00299   0.00737   0.00593
  68       10PX        -0.00004   0.00050  -0.00428  -0.01085  -0.00523
  69       10PY        -0.00700   0.00059   0.00131   0.00822   0.02390
  70       10PZ        -0.00349   0.00013   0.01007   0.03048   0.02922
  71       11PX        -0.00087   0.00036  -0.00117  -0.00556   0.00089
  72       11PY         0.00031  -0.00088   0.00245  -0.00321   0.00862
  73       11PZ        -0.00105  -0.00024   0.00419   0.01226   0.00590
  74 7   O  1S         -0.00018   0.00004   0.00011   0.00183   0.00182
  75        2S         -0.00032   0.00007   0.00018   0.00296   0.00300
  76        2PX         0.00037   0.00017   0.00052   0.00304   0.00926
  77        2PY         0.00102  -0.00110   0.00187  -0.00288   0.01169
  78        2PZ         0.00110  -0.00019  -0.00124  -0.00342  -0.01348
  79        3S          0.00092  -0.00027  -0.00046  -0.00822  -0.00790
  80        3PX         0.00052   0.00025   0.00064   0.00363   0.01244
  81        3PY         0.00139  -0.00157   0.00276  -0.00398   0.01655
  82        3PZ         0.00154  -0.00030  -0.00154  -0.00444  -0.01829
  83        4S          0.00225  -0.00024  -0.00226  -0.01755  -0.01950
  84        4PX         0.00023   0.00022   0.00167   0.00896   0.01860
  85        4PY         0.00128  -0.00157   0.00293  -0.00162   0.02042
  86        4PZ         0.00089  -0.00017  -0.00158  -0.00133  -0.01560
  87 8   Cl 1S          0.00003  -0.00001   0.00006  -0.00008   0.00062
  88        2S          0.00007  -0.00002   0.00016  -0.00026   0.00178
  89        3S         -0.00013   0.00004  -0.00026   0.00067  -0.00351
  90        4S         -0.00030   0.00009  -0.00088  -0.00015  -0.00663
  91        5S          0.00061  -0.00022   0.00243   0.00358   0.01067
  92        6S         -0.00056   0.00004  -0.00159  -0.00954   0.00788
  93        7PX         0.00042  -0.00017   0.00058  -0.00030   0.00047
  94        7PY         0.00073   0.00012   0.00024   0.00090  -0.00423
  95        7PZ         0.00061  -0.00017  -0.00022  -0.00017  -0.00478
  96        8PX        -0.00017   0.00007  -0.00024   0.00004  -0.00018
  97        8PY        -0.00027  -0.00005  -0.00008  -0.00031   0.00163
  98        8PZ        -0.00023   0.00007   0.00008   0.00007   0.00181
  99        9PX        -0.00046   0.00015  -0.00048   0.00076  -0.00041
 100        9PY        -0.00087  -0.00013  -0.00040  -0.00141   0.00440
 101        9PZ        -0.00072   0.00020   0.00023  -0.00003   0.00531
 102       10PX        -0.00134   0.00054  -0.00192  -0.00110  -0.00090
 103       10PY        -0.00174  -0.00033  -0.00059  -0.00193   0.01155
 104       10PZ        -0.00154   0.00046   0.00033   0.00032   0.01238
 105       11PX        -0.00115   0.00018  -0.00186  -0.00396  -0.00062
 106       11PY        -0.00144  -0.00000  -0.00037  -0.00170   0.00176
 107       11PZ        -0.00075   0.00026   0.00037  -0.00182   0.00449
 108 9   Cl 1S          0.00002   0.00001  -0.00034  -0.00004  -0.00091
 109        2S          0.00005   0.00002  -0.00095  -0.00007  -0.00260
 110        3S         -0.00008  -0.00004   0.00178   0.00007   0.00476
 111        4S         -0.00019  -0.00010   0.00422   0.00246   0.00891
 112        5S          0.00039   0.00016  -0.00883  -0.01101  -0.01288
 113        6S         -0.00053  -0.00001   0.00013   0.01055  -0.00228
 114        7PX        -0.00001  -0.00011  -0.00030  -0.00026  -0.00263
 115        7PY         0.00037   0.00049  -0.00395  -0.00744  -0.00852
 116        7PZ         0.00077  -0.00003  -0.00289  -0.01203  -0.00463
 117        8PX         0.00001   0.00004   0.00011   0.00005   0.00098
 118        8PY        -0.00013  -0.00019   0.00145   0.00267   0.00314
 119        8PZ        -0.00029   0.00001   0.00110   0.00464   0.00178
 120        9PX         0.00000   0.00012   0.00039   0.00073   0.00297
 121        9PY        -0.00046  -0.00056   0.00513   0.01012   0.01003
 122        9PZ        -0.00089   0.00001   0.00358   0.01359   0.00546
 123       10PX         0.00005   0.00028   0.00083  -0.00027   0.00641
 124       10PY        -0.00075  -0.00128   0.00992   0.01675   0.01966
 125       10PZ        -0.00210   0.00012   0.00791   0.03420   0.01260
 126       11PX         0.00046   0.00014  -0.00157  -0.00346   0.00066
 127       11PY        -0.00055  -0.00056   0.00489   0.01147   0.01140
 128       11PZ        -0.00147  -0.00015   0.00833   0.02476   0.01218
                          31        32        33        34        35
  31        4PX         0.00000
  32        4PY         0.00000   0.00000
  33        4PZ         0.00000   0.00000   0.00000
  34 4   H  1S         -0.00033   0.00164  -0.00305   0.00000
  35        2S         -0.00008   0.00449  -0.00782   0.00000   0.00000
  36        3S          0.00097   0.00382  -0.00630   0.00000   0.00000
  37        4PX        -0.00003   0.00051  -0.00088   0.00000   0.00000
  38        4PY        -0.00009  -0.00007   0.00014   0.00000   0.00000
  39        4PZ         0.00014   0.00014  -0.00025   0.00000   0.00000
  40 5   O  1S          0.00008  -0.00029  -0.00002   0.00103   0.00122
  41        2S          0.00016  -0.00043   0.00007   0.00155   0.00205
  42        2PX        -0.00010   0.00198  -0.00191   0.01327   0.04997
  43        2PY         0.00094   0.00071  -0.00129   0.00498   0.01274
  44        2PZ        -0.00414  -0.00435   0.00446   0.00644   0.01139
  45        3S         -0.00087   0.00095  -0.00029  -0.00317  -0.00298
  46        3PX        -0.00018   0.00269  -0.00257   0.01821   0.06938
  47        3PY         0.00129   0.00099  -0.00183   0.00656   0.01753
  48        3PZ        -0.00582  -0.00612   0.00622   0.00927   0.01684
  49        4S          0.00023   0.00183  -0.00238  -0.01226  -0.02425
  50        4PX        -0.00017   0.00323  -0.00311   0.02617   0.08871
  51        4PY         0.00130   0.00087  -0.00197   0.01138   0.02393
  52        4PZ        -0.00703  -0.00750   0.00819   0.01380   0.02323
  53 6   P  1S         -0.00000   0.00008  -0.00001  -0.00043   0.00015
  54        2S         -0.00001   0.00023  -0.00003  -0.00120   0.00043
  55        3S         -0.00002  -0.00048   0.00007   0.00253  -0.00060
  56        4S         -0.00016  -0.00084   0.00026   0.00479  -0.00040
  57        5S          0.00091   0.00136  -0.00097  -0.00904  -0.00451
  58        6S          0.00046   0.00086  -0.00095  -0.00982  -0.00606
  59        7PX        -0.00008  -0.00017   0.00012  -0.00124  -0.00306
  60        7PY         0.00035   0.00009  -0.00018  -0.00091  -0.00365
  61        7PZ         0.00028   0.00041  -0.00052  -0.00045  -0.00121
  62        8PX        -0.00014  -0.00029   0.00020  -0.00209  -0.00500
  63        8PY         0.00060   0.00014  -0.00032  -0.00155  -0.00623
  64        8PZ         0.00046   0.00069  -0.00087  -0.00081  -0.00206
  65        9PX         0.00014   0.00030  -0.00018   0.00221   0.00459
  66        9PY        -0.00076  -0.00008   0.00053   0.00197   0.00771
  67        9PZ        -0.00048  -0.00056   0.00102   0.00121   0.00275
  68       10PX         0.00026   0.00087  -0.00077   0.00905   0.02471
  69       10PY        -0.00194  -0.00051   0.00069   0.00599   0.02067
  70       10PZ        -0.00226  -0.00256   0.00381   0.00192   0.00872
  71       11PX         0.00016   0.00054  -0.00053   0.00270   0.01343
  72       11PY         0.00009  -0.00008  -0.00042   0.00382   0.00349
  73       11PZ        -0.00083  -0.00101   0.00119   0.00186   0.00069
  74 7   O  1S         -0.00015   0.00002   0.00023   0.00011   0.00182
  75        2S         -0.00026   0.00004   0.00037   0.00018   0.00295
  76        2PX        -0.00019  -0.00052   0.00030  -0.00207  -0.00247
  77        2PY         0.00012  -0.00030  -0.00056   0.00097  -0.00479
  78        2PZ         0.00037   0.00016  -0.00058   0.00035  -0.00004
  79        3S          0.00074  -0.00024  -0.00108  -0.00046  -0.00819
  80        3PX        -0.00022  -0.00064   0.00037  -0.00276  -0.00299
  81        3PY         0.00014  -0.00042  -0.00080   0.00157  -0.00626
  82        3PZ         0.00051   0.00018  -0.00078   0.00055  -0.00038
  83        4S          0.00176   0.00077  -0.00193  -0.00227  -0.01752
  84        4PX        -0.00068  -0.00120   0.00088  -0.00323  -0.00338
  85        4PY        -0.00005  -0.00068  -0.00051   0.00122  -0.00591
  86        4PZ         0.00006  -0.00005  -0.00050   0.00144   0.00621
  87 8   Cl 1S         -0.00000  -0.00001  -0.00001  -0.00034  -0.00004
  88        2S         -0.00000  -0.00002  -0.00004  -0.00095  -0.00007
  89        3S         -0.00001   0.00005   0.00008   0.00178   0.00007
  90        4S         -0.00000   0.00018   0.00001   0.00421   0.00245
  91        5S         -0.00001  -0.00052   0.00035  -0.00883  -0.01100
  92        6S          0.00041   0.00027  -0.00085   0.00017   0.01061
  93        7PX         0.00007  -0.00009   0.00021  -0.00041  -0.00622
  94        7PY         0.00031  -0.00018  -0.00009  -0.00399  -0.00955
  95        7PZ         0.00003  -0.00016  -0.00033  -0.00282  -0.00837
  96        8PX        -0.00002   0.00004  -0.00009   0.00018   0.00251
  97        8PY        -0.00012   0.00007   0.00004   0.00148   0.00355
  98        8PZ        -0.00001   0.00006   0.00013   0.00105   0.00313
  99        9PX        -0.00010   0.00005  -0.00018   0.00038   0.00607
 100        9PY        -0.00034   0.00024   0.00006   0.00513   0.01202
 101        9PZ        -0.00003   0.00021   0.00035   0.00358   0.01031
 102       10PX        -0.00008   0.00037  -0.00070   0.00155   0.02013
 103       10PY        -0.00083   0.00040   0.00027   0.01017   0.02394
 104       10PZ        -0.00010   0.00043   0.00084   0.00746   0.02172
 105       11PX        -0.00002   0.00027  -0.00061   0.00503   0.01596
 106       11PY        -0.00041   0.00052   0.00010   0.00720   0.01831
 107       11PZ         0.00016   0.00054   0.00027   0.00428   0.01288
 108 9   Cl 1S          0.00002   0.00011  -0.00004   0.00006  -0.00008
 109        2S          0.00007   0.00031  -0.00011   0.00016  -0.00026
 110        3S         -0.00013  -0.00061   0.00019  -0.00027   0.00066
 111        4S         -0.00029  -0.00126   0.00051  -0.00089  -0.00016
 112        5S          0.00067   0.00222  -0.00122   0.00244   0.00360
 113        6S         -0.00040   0.00056   0.00115  -0.00157  -0.00950
 114        7PX        -0.00047   0.00015  -0.00032  -0.00048  -0.00044
 115        7PY         0.00033   0.00139  -0.00058  -0.00012   0.00088
 116        7PZ         0.00066   0.00116  -0.00090   0.00045  -0.00003
 117        8PX         0.00018  -0.00005   0.00012   0.00018   0.00018
 118        8PY        -0.00012  -0.00052   0.00020   0.00006  -0.00028
 119        8PZ        -0.00025  -0.00045   0.00035  -0.00019  -0.00004
 120        9PX         0.00050  -0.00020   0.00040   0.00053   0.00036
 121        9PY        -0.00044  -0.00165   0.00080  -0.00006  -0.00159
 122        9PZ        -0.00072  -0.00132   0.00102  -0.00041   0.00015
 123       10PX         0.00129  -0.00031   0.00071   0.00117   0.00148
 124       10PY        -0.00065  -0.00335   0.00117   0.00046  -0.00111
 125       10PZ        -0.00189  -0.00320   0.00268  -0.00160  -0.00140
 126       11PX         0.00088   0.00003  -0.00001   0.00108   0.00062
 127       11PY        -0.00054  -0.00200   0.00082   0.00063  -0.00018
 128       11PZ        -0.00122  -0.00228   0.00219  -0.00147  -0.00472
                          36        37        38        39        40
  36        3S          0.00000
  37        4PX         0.00000   0.00000
  38        4PY         0.00000   0.00000   0.00000
  39        4PZ         0.00000   0.00000   0.00000   0.00000
  40 5   O  1S         -0.00701   0.00010  -0.00028  -0.00002   0.00000
  41        2S         -0.01124   0.00021  -0.00041   0.00004   0.00000
  42        2PX         0.04348   0.00740  -0.00059  -0.00197   0.00000
  43        2PY         0.00877   0.00177  -0.00084  -0.00020   0.00000
  44        2PZ        -0.00062   0.00103   0.00069  -0.00149   0.00000
  45        3S          0.03330  -0.00041   0.00112  -0.00058   0.00000
  46        3PX         0.06009   0.01031  -0.00084  -0.00277   0.00000
  47        3PY         0.01274   0.00241  -0.00117  -0.00032   0.00000
  48        3PZ        -0.00054   0.00155   0.00093  -0.00211   0.00000
  49        4S          0.03797  -0.00289   0.00074  -0.00047   0.00000
  50        4PX         0.06936   0.01276  -0.00088  -0.00302   0.00000
  51        4PY         0.02064   0.00345  -0.00143  -0.00047   0.00000
  52        4PZ        -0.00371   0.00229   0.00111  -0.00243   0.00000
  53 6   P  1S         -0.00085  -0.00005   0.00007   0.00002   0.00016
  54        2S         -0.00234  -0.00013   0.00019   0.00005   0.00050
  55        3S          0.00500   0.00029  -0.00038  -0.00012  -0.00142
  56        4S          0.00929   0.00065  -0.00055  -0.00024  -0.00246
  57        5S         -0.01665  -0.00171   0.00042   0.00066   0.00539
  58        6S         -0.01717  -0.00134   0.00023   0.00015   0.02866
  59        7PX        -0.00232  -0.00051   0.00014  -0.00002   0.00115
  60        7PY        -0.00377  -0.00055  -0.00007   0.00024  -0.00240
  61        7PZ        -0.00192  -0.00027  -0.00007   0.00006   0.00050
  62        8PX        -0.00390  -0.00084   0.00024  -0.00003   0.00210
  63        8PY        -0.00608  -0.00094  -0.00013   0.00040  -0.00479
  64        8PZ        -0.00304  -0.00046  -0.00012   0.00010   0.00068
  65        9PX         0.00366   0.00080  -0.00021   0.00011  -0.00224
  66        9PY         0.00595   0.00111   0.00033  -0.00038   0.00699
  67        9PZ         0.00243   0.00056   0.00027  -0.00004   0.00035
  68       10PX         0.01437   0.00385  -0.00042   0.00007  -0.00127
  69       10PY         0.03077   0.00318   0.00042  -0.00139  -0.00850
  70       10PZ         0.01726   0.00203   0.00054  -0.00066  -0.00696
  71       11PX         0.00047   0.00182  -0.00005  -0.00024  -0.00122
  72       11PY         0.00848   0.00057  -0.00033  -0.00026  -0.00949
  73       11PZ         0.00618   0.00016   0.00006  -0.00022  -0.00747
  74 7   O  1S          0.00182   0.00023   0.00015  -0.00001   0.00005
  75        2S          0.00300   0.00038   0.00026  -0.00002   0.00012
  76        2PX        -0.01963  -0.00057   0.00013   0.00023   0.00151
  77        2PY         0.00153  -0.00075  -0.00033  -0.00014  -0.00592
  78        2PZ         0.00417   0.00001  -0.00045  -0.00018  -0.00093
  79        3S         -0.00791  -0.00101  -0.00086  -0.00001  -0.00127
  80        3PX        -0.02692  -0.00072   0.00015   0.00032   0.00203
  81        3PY         0.00271  -0.00098  -0.00048  -0.00024  -0.00886
  82        3PZ         0.00576  -0.00003  -0.00062  -0.00023  -0.00177
  83        4S         -0.01952  -0.00252  -0.00075   0.00069   0.00309
  84        4PX        -0.02863  -0.00081   0.00030   0.00021   0.00156
  85        4PY         0.00383  -0.00089  -0.00044  -0.00026  -0.00841
  86        4PZ         0.01325   0.00101  -0.00066  -0.00063  -0.00228
  87 8   Cl 1S         -0.00091  -0.00009   0.00007   0.00003  -0.00008
  88        2S         -0.00259  -0.00026   0.00020   0.00009  -0.00024
  89        3S          0.00474   0.00048  -0.00040  -0.00018   0.00060
  90        4S          0.00888   0.00110  -0.00076  -0.00034   0.00055
  91        5S         -0.01282  -0.00226   0.00119   0.00057  -0.00010
  92        6S         -0.00224   0.00082   0.00099   0.00040  -0.00735
  93        7PX         0.00111  -0.00058  -0.00015   0.00033  -0.00047
  94        7PY        -0.00724  -0.00138   0.00069   0.00066   0.00158
  95        7PZ        -0.00691  -0.00125   0.00064  -0.00009  -0.00045
  96        8PX        -0.00035   0.00024   0.00006  -0.00013   0.00011
  97        8PY         0.00269   0.00051  -0.00026  -0.00025  -0.00058
  98        8PZ         0.00259   0.00047  -0.00024   0.00004   0.00016
  99        9PX        -0.00126   0.00055   0.00015  -0.00036   0.00056
 100        9PY         0.00859   0.00169  -0.00078  -0.00074  -0.00184
 101        9PZ         0.00804   0.00151  -0.00073   0.00010   0.00059
 102       10PX        -0.00109   0.00214   0.00040  -0.00094  -0.00029
 103       10PY         0.01710   0.00341  -0.00177  -0.00169  -0.00358
 104       10PZ         0.01720   0.00319  -0.00165   0.00026   0.00095
 105       11PX         0.00434   0.00193   0.00011  -0.00041  -0.00307
 106       11PY         0.01274   0.00258  -0.00100  -0.00100  -0.00113
 107       11PZ         0.00992   0.00190  -0.00099   0.00014   0.00253
 108 9   Cl 1S          0.00062  -0.00001  -0.00001  -0.00001  -0.00008
 109        2S          0.00178  -0.00002  -0.00003  -0.00003  -0.00024
 110        3S         -0.00350   0.00004   0.00007   0.00005   0.00060
 111        4S         -0.00662  -0.00007   0.00015   0.00006   0.00055
 112        5S          0.01066   0.00053  -0.00032   0.00001  -0.00010
 113        6S          0.00792  -0.00096  -0.00021  -0.00002  -0.00735
 114        7PX        -0.00206  -0.00019  -0.00004  -0.00027  -0.00095
 115        7PY        -0.00508  -0.00022  -0.00032   0.00002   0.00141
 116        7PZ        -0.00319   0.00003  -0.00026   0.00006  -0.00015
 117        8PX         0.00077   0.00007   0.00001   0.00010   0.00037
 118        8PY         0.00195   0.00009   0.00012  -0.00001  -0.00049
 119        8PZ         0.00122  -0.00002   0.00010  -0.00002   0.00001
 120        9PX         0.00240   0.00018   0.00005   0.00031   0.00116
 121        9PY         0.00533   0.00016   0.00038  -0.00002  -0.00163
 122        9PZ         0.00355  -0.00001   0.00029  -0.00008   0.00023
 123       10PX         0.00496   0.00052   0.00010   0.00068   0.00256
 124       10PY         0.01349   0.00073   0.00079  -0.00008  -0.00258
 125       10PZ         0.00870  -0.00025   0.00068  -0.00014  -0.00078
 126       11PX         0.00304   0.00015   0.00005   0.00049   0.00362
 127       11PY         0.00296   0.00023   0.00065   0.00012   0.00122
 128       11PZ         0.00219  -0.00057   0.00047  -0.00003  -0.00156
                          41        42        43        44        45
  41        2S          0.00000
  42        2PX         0.00000   0.00000
  43        2PY         0.00000   0.00000   0.00000
  44        2PZ         0.00000   0.00000   0.00000   0.00000
  45        3S          0.00000   0.00000   0.00000   0.00000   0.00000
  46        3PX         0.00000   0.00000   0.00000   0.00000   0.00000
  47        3PY         0.00000   0.00000   0.00000   0.00000   0.00000
  48        3PZ         0.00000   0.00000   0.00000   0.00000   0.00000
  49        4S          0.00000   0.00000   0.00000   0.00000   0.00000
  50        4PX         0.00000   0.00000   0.00000   0.00000   0.00000
  51        4PY         0.00000   0.00000   0.00000   0.00000   0.00000
  52        4PZ         0.00000   0.00000   0.00000   0.00000   0.00000
  53 6   P  1S          0.00029  -0.00170   0.00414  -0.00040  -0.00124
  54        2S          0.00086  -0.00470   0.01135  -0.00117  -0.00363
  55        3S         -0.00242   0.01011  -0.02364   0.00296   0.00948
  56        4S         -0.00424   0.01817  -0.04637   0.00309   0.01667
  57        5S          0.00972  -0.03645   0.09077  -0.00750  -0.03867
  58        6S          0.04350   0.00207  -0.00185   0.00237  -0.11356
  59        7PX         0.00182  -0.00397  -0.00928   0.00123  -0.00485
  60        7PY        -0.00377  -0.01161   0.02471  -0.00021   0.00978
  61        7PZ         0.00081  -0.00011   0.00360  -0.00610  -0.00233
  62        8PX         0.00333  -0.00604  -0.01650   0.00211  -0.00886
  63        8PY        -0.00761  -0.02008   0.04406  -0.00000   0.02000
  64        8PZ         0.00108   0.00005   0.00586  -0.00967  -0.00301
  65        9PX        -0.00352   0.00154   0.02236  -0.00320   0.00835
  66        9PY         0.01113   0.02476  -0.06074  -0.00091  -0.02847
  67        9PZ         0.00063  -0.00182  -0.00484   0.00560  -0.00269
  68       10PX        -0.00227   0.03585   0.03056  -0.00089   0.00897
  69       10PY        -0.01332   0.04954  -0.08996   0.00226   0.03468
  70       10PZ        -0.01137   0.01002  -0.02878   0.04697   0.03461
  71       11PX        -0.00240   0.03632  -0.00111  -0.00989   0.01167
  72       11PY        -0.01408   0.00232   0.03037  -0.00288   0.03020
  73       11PZ        -0.01203  -0.00789  -0.00850   0.02416   0.03651
  74 7   O  1S          0.00008   0.00081   0.00001   0.00133  -0.00030
  75        2S          0.00021   0.00118   0.00005   0.00196  -0.00093
  76        2PX         0.00226  -0.00882  -0.00667   0.00725  -0.00208
  77        2PY        -0.00934  -0.00750   0.02392   0.01044   0.02091
  78        2PZ        -0.00167   0.00677   0.01179   0.00228   0.00862
  79        3S         -0.00232  -0.00078  -0.00074  -0.00170   0.00891
  80        3PX         0.00300  -0.01075  -0.00798   0.00857  -0.00240
  81        3PY        -0.01386  -0.00938   0.03346   0.01468   0.03103
  82        3PZ        -0.00306   0.00776   0.01698   0.00369   0.01392
  83        4S          0.00555  -0.02228   0.01034  -0.03053  -0.01849
  84        4PX         0.00223  -0.01518  -0.01616   0.02082   0.00048
  85        4PY        -0.01365  -0.00918   0.03302   0.02327   0.03235
  86        4PZ        -0.00419   0.02484   0.01183   0.01390   0.01939
  87 8   Cl 1S         -0.00013   0.00071  -0.00008  -0.00006   0.00048
  88        2S         -0.00039   0.00205  -0.00021  -0.00018   0.00142
  89        3S          0.00097  -0.00440   0.00037   0.00047  -0.00338
  90        4S          0.00103  -0.00719   0.00089   0.00031  -0.00463
  91        5S         -0.00055   0.00692  -0.00135   0.00069   0.00468
  92        6S         -0.01151   0.03829   0.00213  -0.00838   0.03563
  93        7PX        -0.00054  -0.01964   0.01159  -0.00233  -0.00236
  94        7PY         0.00238   0.01016  -0.00755   0.00083  -0.00265
  95        7PZ        -0.00078   0.00053  -0.00233   0.00589   0.00339
  96        8PX         0.00014   0.00792  -0.00440   0.00078   0.00102
  97        8PY        -0.00088  -0.00392   0.00287  -0.00026   0.00095
  98        8PZ         0.00029  -0.00028   0.00087  -0.00223  -0.00126
  99        9PX         0.00058   0.01924  -0.01293   0.00327   0.00274
 100        9PY        -0.00276  -0.01169   0.00897  -0.00132   0.00312
 101        9PZ         0.00101   0.00000   0.00288  -0.00696  -0.00416
 102       10PX        -0.00073   0.06628  -0.02926   0.00323   0.01253
 103       10PY        -0.00534  -0.03004   0.01935  -0.00025   0.00445
 104       10PZ         0.00170  -0.00353   0.00508  -0.01459  -0.00786
 105       11PX        -0.00495   0.02965  -0.01173   0.00334   0.01844
 106       11PY        -0.00193  -0.00542   0.01047  -0.00412   0.00219
 107       11PZ         0.00415   0.00387   0.00855  -0.01663  -0.01419
 108 9   Cl 1S         -0.00013  -0.00025  -0.00041   0.00053   0.00048
 109        2S         -0.00039  -0.00074  -0.00119   0.00153   0.00142
 110        3S          0.00097   0.00169   0.00251  -0.00325  -0.00337
 111        4S          0.00103   0.00225   0.00420  -0.00545  -0.00462
 112        5S         -0.00055  -0.00114  -0.00418   0.00560   0.00468
 113        6S         -0.01150  -0.02073  -0.01859   0.02768   0.03562
 114        7PX        -0.00157   0.00454  -0.00146   0.00381   0.00480
 115        7PY         0.00202   0.00265  -0.01775   0.01275  -0.00014
 116        7PZ        -0.00015   0.00250   0.01152  -0.00809  -0.00099
 117        8PX         0.00060  -0.00165   0.00063  -0.00160  -0.00182
 118        8PY        -0.00072  -0.00083   0.00691  -0.00503  -0.00004
 119        8PZ         0.00000  -0.00111  -0.00455   0.00330   0.00047
 120        9PX         0.00192  -0.00586   0.00078  -0.00317  -0.00578
 121        9PY        -0.00229  -0.00420   0.01950  -0.01352   0.00014
 122        9PZ         0.00019  -0.00207  -0.01161   0.00761   0.00105
 123       10PX         0.00414  -0.00909   0.00562  -0.01411  -0.01274
 124       10PY        -0.00364  -0.00027   0.05134  -0.04067  -0.00441
 125       10PZ        -0.00127  -0.01119  -0.03506   0.02877   0.00755
 126       11PX         0.00596  -0.01179   0.00337  -0.00816  -0.01880
 127       11PY         0.00190  -0.00997   0.01927  -0.01423  -0.01087
 128       11PZ        -0.00252  -0.01275  -0.01540   0.01604   0.00858
                          46        47        48        49        50
  46        3PX         0.00000
  47        3PY         0.00000   0.00000
  48        3PZ         0.00000   0.00000   0.00000
  49        4S          0.00000   0.00000   0.00000   0.00000
  50        4PX         0.00000   0.00000   0.00000   0.00000   0.00000
  51        4PY         0.00000   0.00000   0.00000   0.00000   0.00000
  52        4PZ         0.00000   0.00000   0.00000   0.00000   0.00000
  53 6   P  1S         -0.00252   0.00671  -0.00027  -0.00452  -0.00212
  54        2S         -0.00697   0.01843  -0.00082  -0.01256  -0.00588
  55        3S          0.01493  -0.03822   0.00246   0.02767   0.01267
  56        4S          0.02680  -0.07415   0.00125   0.05283   0.02186
  57        5S         -0.05299   0.14142  -0.00545  -0.09396  -0.04550
  58        6S          0.00399   0.00061   0.00692  -0.18942   0.01924
  59        7PX        -0.00602  -0.01393   0.00159  -0.00236  -0.00323
  60        7PY        -0.01701   0.03648  -0.00003   0.00008  -0.01471
  61        7PZ        -0.00017   0.00500  -0.00930  -0.00383   0.00020
  62        8PX        -0.00919  -0.02475   0.00275  -0.00529  -0.00437
  63        8PY        -0.02947   0.06511   0.00043   0.00533  -0.02598
  64        8PZ         0.00003   0.00817  -0.01481  -0.00559   0.00064
  65        9PX         0.00281   0.03339  -0.00420   0.00872  -0.00315
  66        9PY         0.03638  -0.08999  -0.00201  -0.02435   0.03524
  67        9PZ        -0.00249  -0.00690   0.00907   0.00027  -0.00303
  68       10PX         0.05400   0.04649   0.00005  -0.02076   0.04124
  69       10PY         0.07133  -0.13213   0.00036   0.13689   0.04791
  70       10PZ         0.01433  -0.04027   0.07059   0.04471   0.01073
  71       11PX         0.05233  -0.00126  -0.01476  -0.01592   0.05483
  72       11PY         0.00319   0.04376  -0.00466   0.10626  -0.01093
  73       11PZ        -0.01217  -0.01193   0.03412   0.03508  -0.01088
  74 7   O  1S          0.00109   0.00022   0.00191  -0.00250   0.00120
  75        2S          0.00157   0.00032   0.00275  -0.00379   0.00175
  76        2PX        -0.01035  -0.00860   0.00820  -0.04567  -0.01498
  77        2PY        -0.00987   0.03460   0.01431   0.09944  -0.02680
  78        2PZ         0.00747   0.01638   0.00328  -0.01760   0.02254
  79        3S         -0.00076  -0.00135  -0.00202   0.01588  -0.00146
  80        3PX        -0.01224  -0.01011   0.00927  -0.06354  -0.01857
  81        3PY        -0.01232   0.04830   0.01995   0.14298  -0.03606
  82        3PZ         0.00800   0.02356   0.00521  -0.02182   0.02882
  83        4S         -0.03155   0.01290  -0.04425  -0.01967  -0.02825
  84        4PX        -0.01827  -0.02143   0.02653  -0.06134  -0.02645
  85        4PY        -0.01156   0.04842   0.03308   0.14417  -0.03742
  86        4PZ         0.03221   0.01690   0.02046  -0.01754   0.05328
  87 8   Cl 1S          0.00105  -0.00012  -0.00013   0.00079   0.00076
  88        2S          0.00305  -0.00033  -0.00040   0.00233   0.00219
  89        3S         -0.00649   0.00058   0.00097  -0.00502  -0.00481
  90        4S         -0.01047   0.00129   0.00088  -0.00617  -0.00830
  91        5S          0.00979  -0.00189   0.00054   0.00649   0.00761
  92        6S          0.05514   0.00317  -0.01313   0.02680   0.05101
  93        7PX        -0.02727   0.01633  -0.00319   0.02035  -0.03711
  94        7PY         0.01585  -0.01040   0.00190  -0.03903   0.02183
  95        7PZ         0.00008  -0.00395   0.00587  -0.00159   0.00380
  96        8PX         0.01103  -0.00620   0.00107  -0.00784   0.01478
  97        8PY        -0.00611   0.00396  -0.00064   0.01476  -0.00839
  98        8PZ        -0.00014   0.00148  -0.00223   0.00060  -0.00156
  99        9PX         0.02660  -0.01828   0.00445  -0.02051   0.03715
 100        9PY        -0.01826   0.01239  -0.00270   0.04397  -0.02483
 101        9PZ         0.00076   0.00481  -0.00702   0.00149  -0.00334
 102       10PX         0.09289  -0.04095   0.00440  -0.05465   0.11860
 103       10PY        -0.04628   0.02669  -0.00225   0.09850  -0.06224
 104       10PZ        -0.00331   0.00893  -0.01434   0.00386  -0.01300
 105       11PX         0.04171  -0.01660   0.00417  -0.00572   0.05041
 106       11PY        -0.01012   0.01429  -0.00663   0.03788  -0.01317
 107       11PZ         0.00651   0.01291  -0.01983  -0.00456   0.00170
 108 9   Cl 1S         -0.00041  -0.00063   0.00076   0.00078  -0.00024
 109        2S         -0.00120  -0.00182   0.00219   0.00232  -0.00072
 110        3S          0.00270   0.00381  -0.00464  -0.00502   0.00178
 111        4S          0.00364   0.00624  -0.00773  -0.00617   0.00204
 112        5S         -0.00198  -0.00601   0.00770   0.00648  -0.00028
 113        6S         -0.03077  -0.02700   0.03934   0.02680  -0.02650
 114        7PX         0.00525  -0.00263   0.00286   0.01017   0.00947
 115        7PY         0.00332  -0.02546   0.01865  -0.04260   0.01251
 116        7PZ         0.00274   0.01554  -0.01159   0.00463   0.00720
 117        8PX        -0.00189   0.00111  -0.00131  -0.00380  -0.00350
 118        8PY        -0.00101   0.00991  -0.00736   0.01618  -0.00449
 119        8PZ        -0.00127  -0.00615   0.00474  -0.00187  -0.00293
 120        9PX        -0.00695   0.00174  -0.00157  -0.01251  -0.01169
 121        9PY        -0.00545   0.02805  -0.01981   0.04676  -0.01578
 122        9PZ        -0.00201  -0.01559   0.01087  -0.00339  -0.00731
 123       10PX        -0.00979   0.00941  -0.01363  -0.02470  -0.02106
 124       10PY         0.00076   0.07355  -0.05932   0.10900  -0.02274
 125       10PZ        -0.01396  -0.04758   0.04147  -0.01445  -0.02397
 126       11PX        -0.01488   0.00559  -0.00778  -0.01955  -0.02204
 127       11PY        -0.01293   0.02805  -0.02120   0.03300  -0.02573
 128       11PZ        -0.01707  -0.02107   0.02304   0.00392  -0.02360
                          51        52        53        54        55
  51        4PY         0.00000
  52        4PZ         0.00000   0.00000
  53 6   P  1S          0.00414  -0.00109   0.00000
  54        2S          0.01136  -0.00309   0.00000   0.00000
  55        3S         -0.02371   0.00710   0.00000   0.00000   0.00000
  56        4S         -0.04603   0.00931   0.00000   0.00000   0.00000
  57        5S          0.09583  -0.01939   0.00000   0.00000   0.00000
  58        6S         -0.04213   0.00734   0.00000   0.00000   0.00000
  59        7PX        -0.01095   0.00237   0.00000   0.00000   0.00000
  60        7PY         0.03079  -0.00148   0.00000   0.00000   0.00000
  61        7PZ         0.00468  -0.00550   0.00000   0.00000   0.00000
  62        8PX        -0.01997   0.00409   0.00000   0.00000   0.00000
  63        8PY         0.05614  -0.00227   0.00000   0.00000   0.00000
  64        8PZ         0.00757  -0.00849   0.00000   0.00000   0.00000
  65        9PX         0.03010  -0.00598   0.00000   0.00000   0.00000
  66        9PY        -0.08470   0.00262   0.00000   0.00000   0.00000
  67        9PZ        -0.00579   0.00281   0.00000   0.00000   0.00000
  68       10PX         0.02376  -0.00315   0.00000   0.00000   0.00000
  69       10PY        -0.08089   0.00228   0.00000   0.00000   0.00000
  70       10PZ        -0.03722   0.04765   0.00000   0.00000   0.00000
  71       11PX        -0.01360  -0.01245   0.00000   0.00000   0.00000
  72       11PY         0.07797  -0.00624   0.00000   0.00000   0.00000
  73       11PZ        -0.01060   0.03374   0.00000   0.00000   0.00000
  74 7   O  1S         -0.00088   0.00147   0.00035   0.00102  -0.00262
  75        2S         -0.00103   0.00228   0.00060   0.00173  -0.00444
  76        2PX        -0.03120   0.02000  -0.00219  -0.00602   0.01286
  77        2PY         0.06757   0.01692  -0.00282  -0.00774   0.01631
  78        2PZ         0.00969   0.00433  -0.00520  -0.01432   0.03044
  79        3S          0.00156  -0.00150  -0.00242  -0.00695   0.01704
  80        3PX        -0.04180   0.02551  -0.00338  -0.00934   0.01984
  81        3PY         0.09586   0.02416  -0.00444  -0.01221   0.02565
  82        3PZ         0.01475   0.00684  -0.00810  -0.02232   0.04725
  83        4S          0.01435  -0.03802  -0.00419  -0.01171   0.02643
  84        4PX        -0.05389   0.04380  -0.00243  -0.00672   0.01442
  85        4PY         0.09339   0.03392  -0.00317  -0.00871   0.01840
  86        4PZ         0.00692   0.01910  -0.00581  -0.01602   0.03421
  87 8   Cl 1S          0.00006   0.00006  -0.00010  -0.00029   0.00077
  88        2S          0.00021   0.00014  -0.00031  -0.00090   0.00235
  89        3S         -0.00042  -0.00004   0.00080   0.00234  -0.00578
  90        4S          0.00027  -0.00077   0.00080   0.00236  -0.00655
  91        5S         -0.00100   0.00223  -0.00106  -0.00309   0.00865
  92        6S         -0.00036  -0.01163  -0.00772  -0.02152   0.04628
  93        7PX         0.02467  -0.00502  -0.00300  -0.00820   0.01686
  94        7PY        -0.02980   0.00176   0.00016   0.00045  -0.00092
  95        7PZ        -0.00156   0.01896   0.00015   0.00045  -0.00116
  96        8PX        -0.00948   0.00174   0.00110   0.00303  -0.00627
  97        8PY         0.01132  -0.00057  -0.00006  -0.00015   0.00031
  98        8PZ         0.00056  -0.00720  -0.00005  -0.00014   0.00038
  99        9PX        -0.02650   0.00667   0.00296   0.00806  -0.01658
 100        9PY         0.03421  -0.00258  -0.00024  -0.00065   0.00133
 101        9PZ         0.00215  -0.02187  -0.00023  -0.00068   0.00166
 102       10PX        -0.06689   0.00823   0.00683   0.01869  -0.03823
 103       10PY         0.07648  -0.00129  -0.00024  -0.00063   0.00131
 104       10PZ         0.00225  -0.04784  -0.00021  -0.00063   0.00189
 105       11PX        -0.02497   0.00673  -0.00070  -0.00201   0.00426
 106       11PY         0.03559  -0.00692  -0.00054  -0.00150   0.00310
 107       11PZ         0.01049  -0.03886   0.00033   0.00088  -0.00158
 108 9   Cl 1S         -0.00029   0.00066  -0.00010  -0.00029   0.00077
 109        2S         -0.00081   0.00192  -0.00031  -0.00090   0.00235
 110        3S          0.00189  -0.00407   0.00080   0.00234  -0.00578
 111        4S          0.00389  -0.00708   0.00080   0.00236  -0.00655
 112        5S         -0.00376   0.00703  -0.00106  -0.00309   0.00864
 113        6S         -0.02757   0.03571  -0.00772  -0.02152   0.04628
 114        7PX         0.00586   0.01382   0.00106   0.00292  -0.00619
 115        7PY        -0.04541   0.02403   0.00159   0.00435  -0.00902
 116        7PZ         0.02111  -0.01200  -0.00233  -0.00634   0.01292
 117        8PX        -0.00208  -0.00547  -0.00039  -0.00107   0.00227
 118        8PY         0.01753  -0.00939  -0.00058  -0.00159   0.00331
 119        8PZ        -0.00836   0.00486   0.00086   0.00236  -0.00484
 120        9PX        -0.00822  -0.01393  -0.00108  -0.00297   0.00631
 121        9PY         0.04981  -0.02577  -0.00166  -0.00452   0.00937
 122        9PZ        -0.02088   0.01137   0.00223   0.00606  -0.01232
 123       10PX        -0.01145  -0.04138  -0.00236  -0.00651   0.01381
 124       10PY         0.12703  -0.07274  -0.00347  -0.00949   0.01960
 125       10PZ        -0.06542   0.04125   0.00540   0.01475  -0.02987
 126       11PX        -0.00417  -0.02300   0.00076   0.00210  -0.00419
 127       11PY         0.04738  -0.02515  -0.00003  -0.00005   0.00012
 128       11PZ        -0.02665   0.02181  -0.00056  -0.00162   0.00357
                          56        57        58        59        60
  56        4S          0.00000
  57        5S          0.00000   0.00000
  58        6S          0.00000   0.00000   0.00000
  59        7PX         0.00000   0.00000   0.00000   0.00000
  60        7PY         0.00000   0.00000   0.00000   0.00000   0.00000
  61        7PZ         0.00000   0.00000   0.00000   0.00000   0.00000
  62        8PX         0.00000   0.00000   0.00000   0.00000   0.00000
  63        8PY         0.00000   0.00000   0.00000   0.00000   0.00000
  64        8PZ         0.00000   0.00000   0.00000   0.00000   0.00000
  65        9PX         0.00000   0.00000   0.00000   0.00000   0.00000
  66        9PY         0.00000   0.00000   0.00000   0.00000   0.00000
  67        9PZ         0.00000   0.00000   0.00000   0.00000   0.00000
  68       10PX         0.00000   0.00000   0.00000   0.00000   0.00000
  69       10PY         0.00000   0.00000   0.00000   0.00000   0.00000
  70       10PZ         0.00000   0.00000   0.00000   0.00000   0.00000
  71       11PX         0.00000   0.00000   0.00000   0.00000   0.00000
  72       11PY         0.00000   0.00000   0.00000   0.00000   0.00000
  73       11PZ         0.00000   0.00000   0.00000   0.00000   0.00000
  74 7   O  1S         -0.00449   0.01007   0.03420   0.00077   0.00057
  75        2S         -0.00761   0.01734   0.05316   0.00119   0.00088
  76        2PX         0.02445  -0.05056  -0.01103  -0.01012   0.00697
  77        2PY         0.03217  -0.05844  -0.05835   0.00705  -0.00472
  78        2PZ         0.05854  -0.11644  -0.05156   0.01193   0.01728
  79        3S          0.02955  -0.06548  -0.15430  -0.00285  -0.00237
  80        3PX         0.03753  -0.07590  -0.01765  -0.01459   0.01017
  81        3PY         0.05011  -0.08984  -0.08473   0.01026  -0.00661
  82        3PZ         0.09029  -0.17600  -0.07753   0.01731   0.02525
  83        4S          0.04965  -0.10181  -0.16934  -0.00016   0.00859
  84        4PX         0.02698  -0.05747  -0.00268  -0.01282   0.00765
  85        4PY         0.03595  -0.06360  -0.07069   0.00868  -0.00840
  86        4PZ         0.06489  -0.13076  -0.04496   0.01453   0.01842
  87 8   Cl 1S          0.00104  -0.00212  -0.00704   0.00035   0.00003
  88        2S          0.00319  -0.00637  -0.02045   0.00097   0.00010
  89        3S         -0.00842   0.01625   0.04159  -0.00163  -0.00024
  90        4S         -0.00917   0.02247   0.06433  -0.00406  -0.00029
  91        5S          0.01421  -0.03917  -0.08010   0.00603   0.00012
  92        6S          0.08175  -0.14424  -0.14892  -0.00764   0.00312
  93        7PX         0.03345  -0.05344  -0.06149  -0.02136  -0.00097
  94        7PY        -0.00204   0.00223   0.01448   0.00001   0.00404
  95        7PZ        -0.00107   0.00187  -0.00307   0.00011  -0.00035
  96        8PX        -0.01241   0.01965   0.02306   0.00801   0.00037
  97        8PY         0.00071  -0.00077  -0.00543  -0.00000  -0.00151
  98        8PZ         0.00031  -0.00059   0.00126  -0.00005   0.00013
  99        9PX        -0.03321   0.05309   0.06484   0.02337   0.00112
 100        9PY         0.00283  -0.00336  -0.01716  -0.00000  -0.00429
 101        9PZ         0.00180  -0.00310   0.00304  -0.00003   0.00043
 102       10PX        -0.07608   0.11666   0.14887   0.05117   0.00273
 103       10PY         0.00347  -0.00313  -0.03544   0.00003  -0.00992
 104       10PZ         0.00087  -0.00242   0.01026  -0.00054   0.00087
 105       11PX         0.00573  -0.01290   0.01816   0.01626   0.00252
 106       11PY         0.00600  -0.00894  -0.01982  -0.00057  -0.00332
 107       11PZ        -0.00430   0.00762   0.00996  -0.00067   0.00010
 108 9   Cl 1S          0.00104  -0.00212  -0.00704  -0.00016  -0.00014
 109        2S          0.00319  -0.00637  -0.02045  -0.00044  -0.00039
 110        3S         -0.00842   0.01625   0.04159   0.00083   0.00063
 111        4S         -0.00916   0.02246   0.06433   0.00158   0.00169
 112        5S          0.01419  -0.03915  -0.08008  -0.00172  -0.00260
 113        6S          0.08174  -0.14424  -0.14885  -0.00098   0.00545
 114        7PX        -0.01118   0.01847   0.01142   0.00168  -0.00382
 115        7PY        -0.01772   0.02751   0.04010  -0.00354  -0.00105
 116        7PZ         0.02618  -0.04204  -0.04758   0.00579   0.00832
 117        8PX         0.00410  -0.00674  -0.00420  -0.00061   0.00144
 118        8PY         0.00651  -0.01004  -0.01501   0.00134   0.00040
 119        8PZ        -0.00978   0.01553   0.01790  -0.00217  -0.00311
 120        9PX         0.01133  -0.01882  -0.01131  -0.00187   0.00410
 121        9PY         0.01848  -0.02863  -0.04392   0.00374   0.00118
 122        9PZ        -0.02540   0.04082   0.04952  -0.00621  -0.00898
 123       10PX         0.02471  -0.03979  -0.02518  -0.00376   0.00934
 124       10PY         0.03890  -0.05814  -0.09663   0.00894   0.00230
 125       10PZ        -0.06066   0.09309   0.11648  -0.01398  -0.01966
 126       11PX        -0.00827   0.01479   0.01131  -0.00105   0.00244
 127       11PY         0.00106   0.00080  -0.02221   0.00236  -0.00018
 128       11PZ         0.00422  -0.00924   0.01417  -0.00530  -0.00519
                          61        62        63        64        65
  61        7PZ         0.00000
  62        8PX         0.00000   0.00000
  63        8PY         0.00000   0.00000   0.00000
  64        8PZ         0.00000   0.00000   0.00000   0.00000
  65        9PX         0.00000   0.00000   0.00000   0.00000   0.00000
  66        9PY         0.00000   0.00000   0.00000   0.00000   0.00000
  67        9PZ         0.00000   0.00000   0.00000   0.00000   0.00000
  68       10PX         0.00000   0.00000   0.00000   0.00000   0.00000
  69       10PY         0.00000   0.00000   0.00000   0.00000   0.00000
  70       10PZ         0.00000   0.00000   0.00000   0.00000   0.00000
  71       11PX         0.00000   0.00000   0.00000   0.00000   0.00000
  72       11PY         0.00000   0.00000   0.00000   0.00000   0.00000
  73       11PZ         0.00000   0.00000   0.00000   0.00000   0.00000
  74 7   O  1S          0.00159   0.00153   0.00131   0.00325  -0.00193
  75        2S          0.00246   0.00239   0.00209   0.00511  -0.00304
  76        2PX         0.01188  -0.01617   0.01164   0.02014   0.01294
  77        2PY         0.01741   0.01185  -0.00650   0.02968  -0.01300
  78        2PZ         0.01455   0.02026   0.02933   0.02567  -0.02378
  79        3S         -0.00602  -0.00589  -0.00583  -0.01299   0.00719
  80        3PX         0.01726  -0.02332   0.01703   0.02930   0.01889
  81        3PY         0.02539   0.01727  -0.00905   0.04334  -0.01910
  82        3PZ         0.02132   0.02943   0.04295   0.03768  -0.03477
  83        4S          0.00468  -0.00156   0.01257   0.00468   0.00452
  84        4PX         0.01394  -0.02022   0.01280   0.02375   0.01499
  85        4PY         0.02010   0.01469  -0.01206   0.03450  -0.01673
  86        4PZ         0.01575   0.02484   0.03142   0.02852  -0.03032
  87 8   Cl 1S         -0.00003   0.00067   0.00005  -0.00004  -0.00052
  88        2S         -0.00008   0.00184   0.00015  -0.00012  -0.00141
  89        3S          0.00021  -0.00315  -0.00036   0.00033   0.00226
  90        4S          0.00010  -0.00766  -0.00040   0.00008   0.00642
  91        5S          0.00044   0.01147   0.00006   0.00096  -0.00908
  92        6S         -0.00256  -0.01110   0.00523  -0.00433   0.00988
  93        7PX        -0.00224  -0.03706  -0.00145  -0.00390   0.04599
  94        7PY        -0.00022   0.00013   0.00564  -0.00048  -0.00091
  95        7PZ         0.00384   0.00007  -0.00076   0.00529   0.00064
  96        8PX         0.00084   0.01392   0.00055   0.00146  -0.01736
  97        8PY         0.00009  -0.00005  -0.00211   0.00018   0.00034
  98        8PZ        -0.00142  -0.00005   0.00029  -0.00195  -0.00022
  99        9PX         0.00269   0.04044   0.00168   0.00468  -0.04950
 100        9PY         0.00025  -0.00013  -0.00589   0.00054   0.00103
 101        9PZ        -0.00414   0.00009   0.00092  -0.00562  -0.00095
 102       10PX         0.00511   0.08931   0.00406   0.00895  -0.11418
 103       10PY         0.00070  -0.00024  -0.01367   0.00142   0.00220
 104       10PZ        -0.00894  -0.00063   0.00190  -0.01194  -0.00102
 105       11PX         0.00193   0.02860   0.00413   0.00338  -0.03856
 106       11PY        -0.00098  -0.00109  -0.00420  -0.00153   0.00208
 107       11PZ        -0.00369  -0.00099   0.00039  -0.00466   0.00042
 108 9   Cl 1S          0.00028  -0.00028  -0.00028   0.00054   0.00019
 109        2S          0.00078  -0.00079  -0.00077   0.00148   0.00052
 110        3S         -0.00129   0.00150   0.00127  -0.00251  -0.00095
 111        4S         -0.00335   0.00283   0.00329  -0.00633  -0.00176
 112        5S          0.00518  -0.00311  -0.00505   0.00987   0.00080
 113        6S         -0.00663  -0.00226   0.00833  -0.00973   0.00226
 114        7PX         0.00742   0.00188  -0.00650   0.01233   0.00421
 115        7PY         0.01027  -0.00592  -0.00306   0.01727   0.00605
 116        7PZ        -0.01411   0.00959   0.01402  -0.02495  -0.00903
 117        8PX        -0.00278  -0.00067   0.00245  -0.00463  -0.00164
 118        8PY        -0.00385   0.00224   0.00116  -0.00648  -0.00230
 119        8PZ         0.00529  -0.00360  -0.00525   0.00937   0.00341
 120        9PX        -0.00809  -0.00208   0.00695  -0.01338  -0.00486
 121        9PY        -0.01123   0.00624   0.00344  -0.01881  -0.00613
 122        9PZ         0.01562  -0.01025  -0.01505   0.02757   0.00921
 123       10PX        -0.01785  -0.00379   0.01597  -0.02972  -0.01219
 124       10PY        -0.02458   0.01499   0.00734  -0.04144  -0.01556
 125       10PZ         0.03377  -0.02318  -0.03325   0.06014   0.02204
 126       11PX        -0.00608  -0.00052   0.00420  -0.00997  -0.00764
 127       11PY        -0.00930   0.00400   0.00120  -0.01557  -0.00408
 128       11PZ         0.01048  -0.00871  -0.00862   0.01907   0.00750
                          66        67        68        69        70
  66        9PY         0.00000
  67        9PZ         0.00000   0.00000
  68       10PX         0.00000   0.00000   0.00000
  69       10PY         0.00000   0.00000   0.00000   0.00000
  70       10PZ         0.00000   0.00000   0.00000   0.00000   0.00000
  71       11PX         0.00000   0.00000   0.00000   0.00000   0.00000
  72       11PY         0.00000   0.00000   0.00000   0.00000   0.00000
  73       11PZ         0.00000   0.00000   0.00000   0.00000   0.00000
  74 7   O  1S         -0.00204  -0.00434   0.00229   0.00762   0.00813
  75        2S         -0.00332  -0.00688   0.00361   0.01234   0.01301
  76        2PX        -0.01188  -0.02314   0.07879  -0.04927  -0.06636
  77        2PY        -0.00111  -0.03509  -0.04681   0.06545  -0.09767
  78        2PZ        -0.03326  -0.03518  -0.06494  -0.10171  -0.06286
  79        3S          0.00930   0.01711  -0.01150  -0.03478  -0.03882
  80        3PX        -0.01766  -0.03395   0.11343  -0.07087  -0.09550
  81        3PY        -0.00190  -0.05158  -0.06774   0.09356  -0.14159
  82        3PZ        -0.04923  -0.05186  -0.09370  -0.14671  -0.09098
  83        4S         -0.00984   0.00173  -0.03167  -0.10251  -0.11081
  84        4PX        -0.01312  -0.02824   0.10641  -0.05535  -0.07446
  85        4PY         0.00154  -0.04240  -0.05652   0.10513  -0.10826
  86        4PZ        -0.03648  -0.04301  -0.07513  -0.10635  -0.05177
  87 8   Cl 1S         -0.00001   0.00000   0.00115  -0.00040   0.00034
  88        2S         -0.00005   0.00002   0.00353  -0.00117   0.00099
  89        3S          0.00018  -0.00013  -0.00918   0.00251  -0.00246
  90        4S         -0.00006   0.00045  -0.01045   0.00406  -0.00327
  91        5S          0.00064  -0.00240   0.01552  -0.00396   0.00360
  92        6S         -0.00578   0.00353   0.09942  -0.02121   0.02007
  93        7PX         0.00038   0.00494   0.10434   0.01459   0.01107
  94        7PY         0.00181   0.00125   0.00455  -0.05071  -0.00288
  95        7PZ         0.00211   0.00226  -0.00316  -0.00434  -0.04629
  96        8PX        -0.00013  -0.00183  -0.03884  -0.00563  -0.00397
  97        8PY        -0.00070  -0.00048  -0.00174   0.01922   0.00105
  98        8PZ        -0.00080  -0.00090   0.00123   0.00164   0.01747
  99        9PX        -0.00062  -0.00604  -0.11556  -0.01583  -0.01360
 100        9PY        -0.00279  -0.00142  -0.00512   0.05565   0.00334
 101        9PZ        -0.00246  -0.00316   0.00334   0.00472   0.05100
 102       10PX        -0.00103  -0.01168  -0.24083  -0.04121  -0.02180
 103       10PY        -0.00541  -0.00337  -0.01209   0.12979   0.00614
 104       10PZ        -0.00530  -0.00757   0.00877   0.01105   0.11566
 105       11PX        -0.00378  -0.00508  -0.07279  -0.02281  -0.00775
 106       11PY        -0.00526   0.00069  -0.00181   0.04964   0.01172
 107       11PZ        -0.00218  -0.00554   0.00662   0.00792   0.05238
 108 9   Cl 1S          0.00023  -0.00043   0.00008  -0.00078   0.00099
 109        2S          0.00063  -0.00116   0.00018  -0.00235   0.00304
 110        3S         -0.00095   0.00184  -0.00010   0.00570  -0.00800
 111        4S         -0.00293   0.00545  -0.00106   0.00736  -0.00899
 112        5S          0.00410  -0.00844  -0.00043  -0.00958   0.01331
 113        6S         -0.00845   0.00818  -0.00712  -0.05861   0.08515
 114        7PX         0.00733  -0.01186  -0.02656   0.02002  -0.04827
 115        7PY         0.01183  -0.01785   0.02217  -0.02647  -0.06256
 116        7PZ        -0.01450   0.03400  -0.03859  -0.04817   0.06038
 117        8PX        -0.00279   0.00447   0.01003  -0.00750   0.01808
 118        8PY        -0.00450   0.00672  -0.00844   0.01018   0.02337
 119        8PZ         0.00547  -0.01282   0.01457   0.01795  -0.02236
 120        9PX        -0.00761   0.01251   0.02956  -0.02202   0.05348
 121        9PY        -0.01326   0.01903  -0.02366   0.02906   0.06935
 122        9PZ         0.01495  -0.03733   0.04177   0.05313  -0.06752
 123       10PX        -0.01857   0.02912   0.06693  -0.04754   0.11535
 124       10PY        -0.03037   0.04369  -0.05740   0.07370   0.14797
 125       10PZ         0.03538  -0.08458   0.09587   0.11146  -0.13602
 126       11PX        -0.00505   0.00908   0.02648  -0.01065   0.04250
 127       11PY        -0.01167   0.01605  -0.01396   0.03739   0.05809
 128       11PZ         0.00774  -0.03004   0.03830   0.03295  -0.03462
                          71        72        73        74        75
  71       11PX         0.00000
  72       11PY         0.00000   0.00000
  73       11PZ         0.00000   0.00000   0.00000
  74 7   O  1S         -0.00094  -0.00002  -0.00154   0.00000
  75        2S         -0.00205  -0.00125  -0.00406   0.00000   0.00000
  76        2PX         0.09338  -0.01920  -0.02823   0.00000   0.00000
  77        2PY        -0.00913   0.10200  -0.01602   0.00000   0.00000
  78        2PZ        -0.02244  -0.03251   0.04841   0.00000   0.00000
  79        3S          0.00928   0.00846   0.02001   0.00000   0.00000
  80        3PX         0.13153  -0.02645  -0.03926   0.00000   0.00000
  81        3PY        -0.01285   0.14475  -0.02188   0.00000   0.00000
  82        3PZ        -0.03144  -0.04414   0.06932   0.00000   0.00000
  83        4S          0.00313   0.01056   0.01108   0.00000   0.00000
  84        4PX         0.13807  -0.02954  -0.04175   0.00000   0.00000
  85        4PY        -0.01158   0.14512  -0.02358   0.00000   0.00000
  86        4PZ        -0.03144  -0.05301   0.07124   0.00000   0.00000
  87 8   Cl 1S          0.00434   0.00027   0.00030  -0.00006  -0.00011
  88        2S          0.01251   0.00080   0.00087  -0.00020  -0.00032
  89        3S         -0.02487  -0.00177  -0.00183   0.00050   0.00081
  90        4S         -0.04108  -0.00253  -0.00329   0.00047   0.00088
  91        5S          0.04632   0.00371   0.00800  -0.00022  -0.00069
  92        6S          0.10408   0.00776  -0.00495  -0.00644  -0.01019
  93        7PX        -0.02802   0.00724   0.01556   0.00019   0.00043
  94        7PY        -0.00824  -0.01078  -0.00162  -0.00056  -0.00083
  95        7PZ        -0.01130   0.00053  -0.00759  -0.00122  -0.00177
  96        8PX         0.01132  -0.00279  -0.00608  -0.00010  -0.00018
  97        8PY         0.00314   0.00411   0.00059   0.00023   0.00033
  98        8PZ         0.00425  -0.00025   0.00291   0.00047   0.00068
  99        9PX         0.02693  -0.00736  -0.01526  -0.00038  -0.00084
 100        9PY         0.00952   0.01195   0.00216   0.00054   0.00079
 101        9PZ         0.01352  -0.00010   0.00845   0.00130   0.00187
 102       10PX         0.09599  -0.02022  -0.04579  -0.00121  -0.00205
 103       10PY         0.02185   0.02862   0.00322   0.00172   0.00251
 104       10PZ         0.02883  -0.00288   0.02039   0.00324   0.00473
 105       11PX         0.04698  -0.00395  -0.01468  -0.00417  -0.00667
 106       11PY         0.01248  -0.00025   0.00730  -0.00022  -0.00019
 107       11PZ         0.01700   0.00567   0.00451   0.00121   0.00208
 108 9   Cl 1S         -0.00135  -0.00172   0.00377  -0.00006  -0.00011
 109        2S         -0.00388  -0.00495   0.01088  -0.00020  -0.00032
 110        3S          0.00771   0.00967  -0.02173   0.00050   0.00081
 111        4S          0.01234   0.01622  -0.03591   0.00047   0.00089
 112        5S         -0.01081  -0.01634   0.04289  -0.00022  -0.00069
 113        6S         -0.04273  -0.04379   0.08470  -0.00644  -0.01018
 114        7PX        -0.01151  -0.00241  -0.00116  -0.00079  -0.00120
 115        7PY        -0.00411  -0.01476  -0.00648  -0.00091  -0.00140
 116        7PZ         0.01587   0.01952  -0.02013  -0.00062  -0.00077
 117        8PX         0.00455   0.00104   0.00026   0.00031   0.00046
 118        8PY         0.00171   0.00579   0.00223   0.00037   0.00056
 119        8PZ        -0.00629  -0.00774   0.00800   0.00022   0.00029
 120        9PX         0.01133   0.00164   0.00259   0.00093   0.00144
 121        9PY         0.00326   0.01484   0.00890   0.00101   0.00159
 122        9PZ        -0.01561  -0.01918   0.02116   0.00050   0.00049
 123       10PX         0.03553   0.01018  -0.00276   0.00225   0.00337
 124       10PY         0.01545   0.04453   0.00928   0.00293   0.00441
 125       10PZ        -0.05029  -0.06221   0.06496   0.00113   0.00142
 126       11PX         0.00399   0.01022  -0.00199   0.00250   0.00404
 127       11PY         0.01239   0.01000   0.00260   0.00212   0.00358
 128       11PZ        -0.02303  -0.02627   0.03725  -0.00285  -0.00445
                          76        77        78        79        80
  76        2PX         0.00000
  77        2PY         0.00000   0.00000
  78        2PZ         0.00000   0.00000   0.00000
  79        3S          0.00000   0.00000   0.00000   0.00000
  80        3PX         0.00000   0.00000   0.00000   0.00000   0.00000
  81        3PY         0.00000   0.00000   0.00000   0.00000   0.00000
  82        3PZ         0.00000   0.00000   0.00000   0.00000   0.00000
  83        4S          0.00000   0.00000   0.00000   0.00000   0.00000
  84        4PX         0.00000   0.00000   0.00000   0.00000   0.00000
  85        4PY         0.00000   0.00000   0.00000   0.00000   0.00000
  86        4PZ         0.00000   0.00000   0.00000   0.00000   0.00000
  87 8   Cl 1S          0.00138   0.00003   0.00004   0.00040   0.00207
  88        2S          0.00404   0.00009   0.00008   0.00120   0.00603
  89        3S         -0.00888  -0.00015   0.00004  -0.00288  -0.01317
  90        4S         -0.01369  -0.00041  -0.00102  -0.00404  -0.02023
  91        5S          0.01345   0.00124   0.00474   0.00508   0.01976
  92        6S          0.08588  -0.00244  -0.01586   0.03226   0.12227
  93        7PX        -0.02500  -0.00412  -0.00941  -0.00330  -0.03409
  94        7PY        -0.00580   0.00638  -0.00722   0.00048  -0.00856
  95        7PZ        -0.00929  -0.00703  -0.00248   0.00096  -0.01385
  96        8PX         0.01017   0.00148   0.00335   0.00124   0.01391
  97        8PY         0.00225  -0.00240   0.00271  -0.00022   0.00331
  98        8PZ         0.00354   0.00264   0.00096  -0.00041   0.00528
  99        9PX         0.02445   0.00525   0.01223   0.00492   0.03322
 100        9PY         0.00682  -0.00794   0.00901  -0.00010   0.01007
 101        9PZ         0.01134   0.00876   0.00287  -0.00061   0.01688
 102       10PX         0.08915   0.00781   0.01704   0.01125   0.12294
 103       10PY         0.01745  -0.01546   0.01713  -0.00221   0.02551
 104       10PZ         0.02636   0.01703   0.00693  -0.00283   0.03907
 105       11PX         0.05029   0.00579   0.00833   0.02193   0.06998
 106       11PY         0.00604  -0.03061   0.02294   0.00226   0.00930
 107       11PZ         0.01145   0.01851  -0.00190  -0.00198   0.01746
 108 9   Cl 1S         -0.00045  -0.00061   0.00116   0.00040  -0.00065
 109        2S         -0.00134  -0.00180   0.00336   0.00120  -0.00192
 110        3S          0.00309   0.00406  -0.00727  -0.00288   0.00443
 111        4S          0.00397   0.00579  -0.01181  -0.00405   0.00571
 112        5S         -0.00124  -0.00392   0.01371   0.00508  -0.00184
 113        6S         -0.04072  -0.04689   0.06144   0.03226  -0.05711
 114        7PX         0.00595  -0.00650   0.00308   0.00167   0.00726
 115        7PY        -0.00579   0.00173   0.00379   0.00222  -0.00696
 116        7PZ         0.00240   0.00517  -0.02878  -0.00207   0.00312
 117        8PX        -0.00209   0.00261  -0.00131  -0.00064  -0.00252
 118        8PY         0.00234  -0.00046  -0.00161  -0.00088   0.00284
 119        8PZ        -0.00121  -0.00235   0.01129   0.00074  -0.00161
 120        9PX        -0.00844   0.00690  -0.00218  -0.00211  -0.01059
 121        9PY         0.00607  -0.00356  -0.00265  -0.00258   0.00720
 122        9PZ        -0.00087  -0.00360   0.03139   0.00368  -0.00094
 123       10PX        -0.00971   0.02098  -0.01240  -0.00506  -0.01074
 124       10PY         0.01890   0.00187  -0.01530  -0.00793   0.02357
 125       10PZ        -0.01737  -0.02756   0.08845   0.00713  -0.02374
 126       11PX        -0.02175   0.02355  -0.00821  -0.01008  -0.02906
 127       11PY         0.02794  -0.00780  -0.01170  -0.00900   0.03733
 128       11PZ        -0.00866  -0.01484   0.04734   0.01753  -0.01195
                          81        82        83        84        85
  81        3PY         0.00000
  82        3PZ         0.00000   0.00000
  83        4S          0.00000   0.00000   0.00000
  84        4PX         0.00000   0.00000   0.00000   0.00000
  85        4PY         0.00000   0.00000   0.00000   0.00000   0.00000
  86        4PZ         0.00000   0.00000   0.00000   0.00000   0.00000
  87 8   Cl 1S          0.00005   0.00009   0.00059   0.00158  -0.00004
  88        2S          0.00015   0.00022   0.00176   0.00461  -0.00011
  89        3S         -0.00026  -0.00016  -0.00369  -0.01048   0.00021
  90        4S         -0.00064  -0.00172  -0.00420  -0.01627  -0.00013
  91        5S          0.00184   0.00696   0.00220   0.01556   0.00168
  92        6S         -0.00338  -0.02147   0.02505   0.11989  -0.00235
  93        7PX        -0.00585  -0.01330   0.00316  -0.04262  -0.00642
  94        7PY         0.00711  -0.00964   0.01487  -0.01186   0.01234
  95        7PZ        -0.00904  -0.00418   0.03202  -0.01929  -0.02126
  96        8PX         0.00210   0.00475  -0.00135   0.01718   0.00238
  97        8PY        -0.00267   0.00362  -0.00567   0.00457  -0.00466
  98        8PZ         0.00339   0.00162  -0.01219   0.00735   0.00803
  99        9PX         0.00752   0.01732  -0.00140   0.04224   0.00765
 100        9PY        -0.00903   0.01209  -0.01630   0.01370  -0.01511
 101        9PZ         0.01138   0.00487  -0.03576   0.02297   0.02514
 102       10PX         0.01095   0.02415  -0.01101   0.14597   0.01453
 103       10PY        -0.01689   0.02277  -0.03903   0.03441  -0.03047
 104       10PZ         0.02181   0.01161  -0.08295   0.05345   0.05308
 105       11PX         0.00838   0.01226   0.01384   0.07841   0.00844
 106       11PY        -0.04053   0.03123  -0.01623   0.01224  -0.04918
 107       11PZ         0.02480  -0.00183  -0.04184   0.02319   0.04164
 108 9   Cl 1S         -0.00090   0.00174   0.00059  -0.00064  -0.00081
 109        2S         -0.00264   0.00508   0.00176  -0.00189  -0.00240
 110        3S          0.00592  -0.01091  -0.00369   0.00438   0.00543
 111        4S          0.00847  -0.01756  -0.00420   0.00543   0.00749
 112        5S         -0.00574   0.02014   0.00221  -0.00087  -0.00409
 113        6S         -0.06637   0.08806   0.02501  -0.05948  -0.06534
 114        7PX        -0.00767   0.00371   0.01809   0.00972  -0.01903
 115        7PY         0.00194   0.00423   0.02011  -0.01663  -0.00022
 116        7PZ         0.00689  -0.04035   0.02290   0.00186   0.00509
 117        8PX         0.00311  -0.00161  -0.00683  -0.00345   0.00740
 118        8PY        -0.00046  -0.00185  -0.00759   0.00650   0.00033
 119        8PZ        -0.00316   0.01584  -0.00884  -0.00113  -0.00244
 120        9PX         0.00802  -0.00237  -0.02107  -0.01352   0.02097
 121        9PY        -0.00446  -0.00247  -0.02321   0.01813  -0.00201
 122        9PZ        -0.00458   0.04410  -0.02376   0.00046  -0.00285
 123       10PX         0.02582  -0.01591  -0.04566  -0.01715   0.05433
 124       10PY         0.00413  -0.01879  -0.05118   0.04808   0.00842
 125       10PZ        -0.03799   0.12425  -0.06176  -0.02055  -0.03219
 126       11PX         0.03105  -0.01089  -0.03122  -0.03365   0.04706
 127       11PY        -0.01051  -0.01527  -0.03209   0.05253  -0.00764
 128       11PZ        -0.02060   0.06719  -0.01439  -0.01032  -0.01773
                          86        87        88        89        90
  86        4PZ         0.00000
  87 8   Cl 1S         -0.00015   0.00000
  88        2S         -0.00047   0.00000   0.00000
  89        3S          0.00117   0.00000   0.00000   0.00000
  90        4S         -0.00014   0.00000   0.00000   0.00000   0.00000
  91        5S          0.00632   0.00000   0.00000   0.00000   0.00000
  92        6S         -0.02477   0.00000   0.00000   0.00000   0.00000
  93        7PX        -0.01385   0.00000   0.00000   0.00000   0.00000
  94        7PY        -0.01974   0.00000   0.00000   0.00000   0.00000
  95        7PZ        -0.01515   0.00000   0.00000   0.00000   0.00000
  96        8PX         0.00501   0.00000   0.00000   0.00000   0.00000
  97        8PY         0.00745   0.00000   0.00000   0.00000   0.00000
  98        8PZ         0.00578   0.00000   0.00000   0.00000   0.00000
  99        9PX         0.01743   0.00000   0.00000   0.00000   0.00000
 100        9PY         0.02344   0.00000   0.00000   0.00000   0.00000
 101        9PZ         0.01706   0.00000   0.00000   0.00000   0.00000
 102       10PX         0.02743   0.00000   0.00000   0.00000   0.00000
 103       10PY         0.04851   0.00000   0.00000   0.00000   0.00000
 104       10PZ         0.03968   0.00000   0.00000   0.00000   0.00000
 105       11PX         0.01055   0.00000   0.00000   0.00000   0.00000
 106       11PY         0.04623   0.00000   0.00000   0.00000   0.00000
 107       11PZ         0.01195   0.00000   0.00000   0.00000   0.00000
 108 9   Cl 1S          0.00120   0.00002   0.00005  -0.00010  -0.00017
 109        2S          0.00349   0.00005   0.00013  -0.00029  -0.00049
 110        3S         -0.00791  -0.00010  -0.00029   0.00065   0.00108
 111        4S         -0.01338  -0.00017  -0.00049   0.00108   0.00201
 112        5S          0.01634   0.00027   0.00078  -0.00172  -0.00352
 113        6S          0.08478   0.00083   0.00242  -0.00491  -0.00804
 114        7PX        -0.00182  -0.00053  -0.00155   0.00334   0.00529
 115        7PY        -0.00137  -0.00005  -0.00017   0.00048  -0.00005
 116        7PZ        -0.05493   0.00004   0.00015  -0.00044   0.00031
 117        8PX         0.00047   0.00021   0.00061  -0.00131  -0.00209
 118        8PY         0.00024   0.00002   0.00005  -0.00016   0.00005
 119        8PZ         0.02142  -0.00001  -0.00002   0.00010  -0.00020
 120        9PX         0.00414   0.00054   0.00157  -0.00337  -0.00527
 121        9PY         0.00411   0.00005   0.00017  -0.00048   0.00020
 122        9PZ         0.05971  -0.00006  -0.00018   0.00047  -0.00042
 123       10PX        -0.00241   0.00148   0.00429  -0.00925  -0.01481
 124       10PY        -0.00532   0.00001   0.00006  -0.00055   0.00120
 125       10PZ         0.16388   0.00016   0.00041  -0.00028  -0.00308
 126       11PX        -0.00302  -0.00037  -0.00107   0.00188   0.00335
 127       11PY        -0.00718  -0.00022  -0.00060   0.00103   0.00281
 128       11PZ         0.08250   0.00021   0.00060  -0.00123  -0.00302
                          91        92        93        94        95
  91        5S          0.00000
  92        6S          0.00000   0.00000
  93        7PX         0.00000   0.00000   0.00000
  94        7PY         0.00000   0.00000   0.00000   0.00000
  95        7PZ         0.00000   0.00000   0.00000   0.00000   0.00000
  96        8PX         0.00000   0.00000   0.00000   0.00000   0.00000
  97        8PY         0.00000   0.00000   0.00000   0.00000   0.00000
  98        8PZ         0.00000   0.00000   0.00000   0.00000   0.00000
  99        9PX         0.00000   0.00000   0.00000   0.00000   0.00000
 100        9PY         0.00000   0.00000   0.00000   0.00000   0.00000
 101        9PZ         0.00000   0.00000   0.00000   0.00000   0.00000
 102       10PX         0.00000   0.00000   0.00000   0.00000   0.00000
 103       10PY         0.00000   0.00000   0.00000   0.00000   0.00000
 104       10PZ         0.00000   0.00000   0.00000   0.00000   0.00000
 105       11PX         0.00000   0.00000   0.00000   0.00000   0.00000
 106       11PY         0.00000   0.00000   0.00000   0.00000   0.00000
 107       11PZ         0.00000   0.00000   0.00000   0.00000   0.00000
 108 9   Cl 1S          0.00027   0.00083   0.00024   0.00022  -0.00043
 109        2S          0.00078   0.00242   0.00072   0.00063  -0.00124
 110        3S         -0.00172  -0.00491  -0.00171  -0.00129   0.00265
 111        4S         -0.00352  -0.00804  -0.00151  -0.00244   0.00446
 112        5S          0.00627   0.01434  -0.00260   0.00310  -0.00440
 113        6S          0.01433   0.00591   0.02549   0.00879  -0.02121
 114        7PX        -0.00417  -0.03002   0.01237   0.00367  -0.00780
 115        7PY         0.00255  -0.01070   0.00594  -0.00231  -0.00498
 116        7PZ        -0.00345   0.01270  -0.00752  -0.00349   0.00376
 117        8PX         0.00170   0.01162  -0.00483  -0.00151   0.00311
 118        8PY        -0.00097   0.00416  -0.00237   0.00081   0.00209
 119        8PZ         0.00134  -0.00499   0.00299   0.00147  -0.00169
 120        9PX         0.00371   0.03143  -0.01348  -0.00354   0.00816
 121        9PY        -0.00308   0.01057  -0.00577   0.00335   0.00431
 122        9PZ         0.00409  -0.01163   0.00724   0.00305  -0.00227
 123       10PX         0.01198   0.08272  -0.03610  -0.01373   0.02598
 124       10PY        -0.00803   0.02939  -0.01879   0.00317   0.01896
 125       10PZ         0.01182  -0.03724   0.02368   0.01316  -0.01841
 126       11PX        -0.00763   0.01577  -0.01789  -0.00210   0.01402
 127       11PY        -0.00753   0.01205  -0.01124   0.01040   0.01095
 128       11PZ         0.00817  -0.00676   0.01336   0.00993  -0.00559
                          96        97        98        99       100
  96        8PX         0.00000
  97        8PY         0.00000   0.00000
  98        8PZ         0.00000   0.00000   0.00000
  99        9PX         0.00000   0.00000   0.00000   0.00000
 100        9PY         0.00000   0.00000   0.00000   0.00000   0.00000
 101        9PZ         0.00000   0.00000   0.00000   0.00000   0.00000
 102       10PX         0.00000   0.00000   0.00000   0.00000   0.00000
 103       10PY         0.00000   0.00000   0.00000   0.00000   0.00000
 104       10PZ         0.00000   0.00000   0.00000   0.00000   0.00000
 105       11PX         0.00000   0.00000   0.00000   0.00000   0.00000
 106       11PY         0.00000   0.00000   0.00000   0.00000   0.00000
 107       11PZ         0.00000   0.00000   0.00000   0.00000   0.00000
 108 9   Cl 1S         -0.00008  -0.00009   0.00017  -0.00025  -0.00022
 109        2S         -0.00025  -0.00025   0.00050  -0.00076  -0.00064
 110        3S          0.00060   0.00051  -0.00106   0.00174   0.00132
 111        4S          0.00052   0.00096  -0.00179   0.00134   0.00252
 112        5S          0.00097  -0.00122   0.00178   0.00354  -0.00314
 113        6S         -0.00994  -0.00341   0.00818  -0.02504  -0.00925
 114        7PX        -0.00514  -0.00139   0.00305  -0.01083  -0.00442
 115        7PY        -0.00230   0.00091   0.00190  -0.00631   0.00252
 116        7PZ         0.00290   0.00135  -0.00147   0.00802   0.00401
 117        8PX         0.00201   0.00057  -0.00121   0.00425   0.00181
 118        8PY         0.00092  -0.00032  -0.00080   0.00252  -0.00089
 119        8PZ        -0.00115  -0.00057   0.00066  -0.00318  -0.00168
 120        9PX         0.00561   0.00135  -0.00319   0.01170   0.00429
 121        9PY         0.00223  -0.00132  -0.00165   0.00616  -0.00369
 122        9PZ        -0.00278  -0.00119   0.00091  -0.00775  -0.00350
 123       10PX         0.01493   0.00523  -0.01011   0.03215   0.01625
 124       10PY         0.00730  -0.00130  -0.00726   0.01975  -0.00340
 125       10PZ        -0.00919  -0.00507   0.00714  -0.02487  -0.01494
 126       11PX         0.00731   0.00080  -0.00543   0.01608   0.00257
 127       11PY         0.00437  -0.00399  -0.00416   0.01166  -0.01178
 128       11PZ        -0.00512  -0.00381   0.00217  -0.01399  -0.01115
                         101       102       103       104       105
 101        9PZ         0.00000
 102       10PX         0.00000   0.00000
 103       10PY         0.00000   0.00000   0.00000
 104       10PZ         0.00000   0.00000   0.00000   0.00000
 105       11PX         0.00000   0.00000   0.00000   0.00000   0.00000
 106       11PY         0.00000   0.00000   0.00000   0.00000   0.00000
 107       11PZ         0.00000   0.00000   0.00000   0.00000   0.00000
 108 9   Cl 1S          0.00043  -0.00037  -0.00064   0.00129   0.00040
 109        2S          0.00123  -0.00113  -0.00184   0.00373   0.00114
 110        3S         -0.00266   0.00314   0.00380  -0.00785  -0.00212
 111        4S         -0.00445   0.00191   0.00707  -0.01329  -0.00491
 112        5S          0.00419   0.00938  -0.00894   0.01341   0.01277
 113        6S          0.02285  -0.07204  -0.02495   0.05728  -0.01648
 114        7PX         0.00874  -0.04676  -0.01008   0.02368  -0.02110
 115        7PY         0.00584  -0.01670   0.00650   0.01268  -0.01128
 116        7PZ        -0.00409   0.02049   0.00943  -0.01109   0.01202
 117        8PX        -0.00349   0.01817   0.00413  -0.00940   0.00817
 118        8PY        -0.00244   0.00669  -0.00230  -0.00535   0.00441
 119        8PZ         0.00184  -0.00820  -0.00396   0.00490  -0.00474
 120        9PX        -0.00911   0.05103   0.00982  -0.02502   0.02273
 121        9PY        -0.00512   0.01604  -0.00928  -0.01081   0.01138
 122        9PZ         0.00240  -0.01922  -0.00830   0.00726  -0.01140
 123       10PX        -0.02911   0.13341   0.03735  -0.07677   0.05929
 124       10PY        -0.02189   0.05336  -0.00945  -0.04888   0.03281
 125       10PZ         0.02025  -0.06640  -0.03546   0.05156  -0.03679
 126       11PX        -0.01570   0.06281   0.00642  -0.04097   0.02444
 127       11PY        -0.01267   0.03216  -0.02719  -0.02725   0.01789
 128       11PZ         0.00596  -0.03571  -0.02642   0.01564  -0.01505
                         106       107       108       109       110
 106       11PY         0.00000
 107       11PZ         0.00000   0.00000
 108 9   Cl 1S          0.00006  -0.00026   0.00000
 109        2S          0.00017  -0.00074   0.00000   0.00000
 110        3S         -0.00037   0.00122   0.00000   0.00000   0.00000
 111        4S         -0.00008   0.00203   0.00000   0.00000   0.00000
 112        5S         -0.00038  -0.00431   0.00000   0.00000   0.00000
 113        6S          0.00072   0.01293   0.00000   0.00000   0.00000
 114        7PX        -0.00605   0.01043   0.00000   0.00000   0.00000
 115        7PY         0.00939   0.01382   0.00000   0.00000   0.00000
 116        7PZ         0.00640  -0.00137   0.00000   0.00000   0.00000
 117        8PX         0.00243  -0.00415   0.00000   0.00000   0.00000
 118        8PY        -0.00351  -0.00549   0.00000   0.00000   0.00000
 119        8PZ        -0.00256   0.00082   0.00000   0.00000   0.00000
 120        9PX         0.00607  -0.01095   0.00000   0.00000   0.00000
 121        9PY        -0.01147  -0.01404   0.00000   0.00000   0.00000
 122        9PZ        -0.00633  -0.00102   0.00000   0.00000   0.00000
 123       10PX         0.02075  -0.03420   0.00000   0.00000   0.00000
 124       10PY        -0.02150  -0.04277   0.00000   0.00000   0.00000
 125       10PZ        -0.01959   0.01341   0.00000   0.00000   0.00000
 126       11PX         0.00155  -0.01719   0.00000   0.00000   0.00000
 127       11PY        -0.02390  -0.02486   0.00000   0.00000   0.00000
 128       11PZ        -0.01415   0.00007   0.00000   0.00000   0.00000
                         111       112       113       114       115
 111        4S          0.00000
 112        5S          0.00000   0.00000
 113        6S          0.00000   0.00000   0.00000
 114        7PX         0.00000   0.00000   0.00000   0.00000
 115        7PY         0.00000   0.00000   0.00000   0.00000   0.00000
 116        7PZ         0.00000   0.00000   0.00000   0.00000   0.00000
 117        8PX         0.00000   0.00000   0.00000   0.00000   0.00000
 118        8PY         0.00000   0.00000   0.00000   0.00000   0.00000
 119        8PZ         0.00000   0.00000   0.00000   0.00000   0.00000
 120        9PX         0.00000   0.00000   0.00000   0.00000   0.00000
 121        9PY         0.00000   0.00000   0.00000   0.00000   0.00000
 122        9PZ         0.00000   0.00000   0.00000   0.00000   0.00000
 123       10PX         0.00000   0.00000   0.00000   0.00000   0.00000
 124       10PY         0.00000   0.00000   0.00000   0.00000   0.00000
 125       10PZ         0.00000   0.00000   0.00000   0.00000   0.00000
 126       11PX         0.00000   0.00000   0.00000   0.00000   0.00000
 127       11PY         0.00000   0.00000   0.00000   0.00000   0.00000
 128       11PZ         0.00000   0.00000   0.00000   0.00000   0.00000
                         116       117       118       119       120
 116        7PZ         0.00000
 117        8PX         0.00000   0.00000
 118        8PY         0.00000   0.00000   0.00000
 119        8PZ         0.00000   0.00000   0.00000   0.00000
 120        9PX         0.00000   0.00000   0.00000   0.00000   0.00000
 121        9PY         0.00000   0.00000   0.00000   0.00000   0.00000
 122        9PZ         0.00000   0.00000   0.00000   0.00000   0.00000
 123       10PX         0.00000   0.00000   0.00000   0.00000   0.00000
 124       10PY         0.00000   0.00000   0.00000   0.00000   0.00000
 125       10PZ         0.00000   0.00000   0.00000   0.00000   0.00000
 126       11PX         0.00000   0.00000   0.00000   0.00000   0.00000
 127       11PY         0.00000   0.00000   0.00000   0.00000   0.00000
 128       11PZ         0.00000   0.00000   0.00000   0.00000   0.00000
                         121       122       123       124       125
 121        9PY         0.00000
 122        9PZ         0.00000   0.00000
 123       10PX         0.00000   0.00000   0.00000
 124       10PY         0.00000   0.00000   0.00000   0.00000
 125       10PZ         0.00000   0.00000   0.00000   0.00000   0.00000
 126       11PX         0.00000   0.00000   0.00000   0.00000   0.00000
 127       11PY         0.00000   0.00000   0.00000   0.00000   0.00000
 128       11PZ         0.00000   0.00000   0.00000   0.00000   0.00000
                         126       127       128
 126       11PX         0.00000
 127       11PY         0.00000   0.00000
 128       11PZ         0.00000   0.00000   0.00000
    Full Bonding Mulliken population analysis:
                           1         2         3         4         5
   1 1   Si 1S          0.00000
   2        2S          0.00000   0.00000
   3        3S          0.00000   0.00000   0.00000
   4        4S          0.00000   0.00000   0.00000   0.00000
   5        5S          0.00000   0.00000   0.00000   0.00000   0.00000
   6        6S          0.00000   0.00000   0.00000   0.00000   0.00000
   7        7PX         0.00000   0.00000   0.00000   0.00000   0.00000
   8        7PY         0.00000   0.00000   0.00000   0.00000   0.00000
   9        7PZ         0.00000   0.00000   0.00000   0.00000   0.00000
  10        8PX         0.00000   0.00000   0.00000   0.00000   0.00000
  11        8PY         0.00000   0.00000   0.00000   0.00000   0.00000
  12        8PZ         0.00000   0.00000   0.00000   0.00000   0.00000
  13        9PX         0.00000   0.00000   0.00000   0.00000   0.00000
  14        9PY         0.00000   0.00000   0.00000   0.00000   0.00000
  15        9PZ         0.00000   0.00000   0.00000   0.00000   0.00000
  16       10PX         0.00000   0.00000   0.00000   0.00000   0.00000
  17       10PY         0.00000   0.00000   0.00000   0.00000   0.00000
  18       10PZ         0.00000   0.00000   0.00000   0.00000   0.00000
  19       11PX         0.00000   0.00000   0.00000   0.00000   0.00000
  20       11PY         0.00000   0.00000   0.00000   0.00000   0.00000
  21       11PZ         0.00000   0.00000   0.00000   0.00000   0.00000
  22 2   H  1S          0.00000   0.00000  -0.00002  -0.00027   0.01095
  23        2S          0.00002   0.00021  -0.00198  -0.00712   0.05108
  24        3S          0.00001   0.00005  -0.00048  -0.00196   0.01643
  25        4PX         0.00000   0.00000  -0.00002  -0.00009   0.00056
  26        4PY         0.00000   0.00001  -0.00014  -0.00069   0.00441
  27        4PZ         0.00000   0.00000   0.00000   0.00000   0.00000
  28 3   H  1S          0.00000   0.00000  -0.00002  -0.00026   0.00997
  29        2S          0.00002   0.00019  -0.00178  -0.00634   0.04091
  30        3S         -0.00000  -0.00005   0.00028   0.00014   0.00836
  31        4PX         0.00000   0.00000  -0.00001  -0.00007   0.00039
  32        4PY         0.00000   0.00000  -0.00003  -0.00016   0.00091
  33        4PZ         0.00000   0.00001  -0.00009  -0.00044   0.00255
  34 4   H  1S          0.00000   0.00000  -0.00002  -0.00026   0.00998
  35        2S          0.00002   0.00019  -0.00179  -0.00634   0.04093
  36        3S         -0.00000  -0.00005   0.00028   0.00014   0.00836
  37        4PX         0.00000   0.00001  -0.00013  -0.00067   0.00386
  38        4PY         0.00000   0.00000  -0.00000  -0.00000   0.00000
  39        4PZ         0.00000   0.00000   0.00000   0.00000   0.00000
  40 5   O  1S         -0.00000  -0.00000   0.00000  -0.00000   0.00001
  41        2S          0.00000   0.00000  -0.00000  -0.00000   0.00002
  42        2PX         0.00000   0.00000  -0.00000  -0.00000   0.00016
  43        2PY         0.00000   0.00000  -0.00000  -0.00000   0.00043
  44        2PZ         0.00000   0.00000  -0.00000  -0.00000   0.00109
  45        3S          0.00000  -0.00000   0.00000   0.00000  -0.00075
  46        3PX         0.00000   0.00000  -0.00000  -0.00003   0.00114
  47        3PY         0.00000   0.00000  -0.00000  -0.00007   0.00335
  48        3PZ         0.00000   0.00000  -0.00001  -0.00019   0.00788
  49        4S         -0.00000  -0.00003   0.00027   0.00116  -0.01279
  50        4PX         0.00000   0.00002  -0.00021  -0.00071   0.00363
  51        4PY         0.00000   0.00002  -0.00018  -0.00112   0.00870
  52        4PZ         0.00001   0.00012  -0.00103  -0.00395   0.02319
  53 6   P  1S          0.00000   0.00000   0.00000   0.00000   0.00000
  54        2S          0.00000   0.00000   0.00000   0.00000   0.00000
  55        3S          0.00000   0.00000   0.00000  -0.00000  -0.00000
  56        4S          0.00000   0.00000  -0.00000  -0.00000  -0.00000
  57        5S         -0.00000  -0.00000   0.00000   0.00000  -0.00003
  58        6S         -0.00000  -0.00000   0.00003   0.00005   0.00153
  59        7PX         0.00000   0.00000   0.00000   0.00000  -0.00000
  60        7PY         0.00000   0.00000   0.00000  -0.00000   0.00000
  61        7PZ         0.00000   0.00000   0.00000  -0.00000   0.00000
  62        8PX        -0.00000  -0.00000   0.00000   0.00000  -0.00000
  63        8PY         0.00000   0.00000  -0.00000  -0.00000   0.00001
  64        8PZ         0.00000   0.00000  -0.00000  -0.00000   0.00000
  65        9PX         0.00000   0.00000  -0.00000  -0.00000   0.00000
  66        9PY        -0.00000  -0.00000   0.00000   0.00000  -0.00012
  67        9PZ        -0.00000  -0.00000   0.00000   0.00000  -0.00003
  68       10PX         0.00000   0.00000  -0.00000  -0.00000   0.00000
  69       10PY        -0.00000  -0.00000   0.00000   0.00003  -0.00106
  70       10PZ        -0.00000  -0.00000   0.00000   0.00000  -0.00027
  71       11PX        -0.00000  -0.00000   0.00000   0.00000  -0.00002
  72       11PY        -0.00000  -0.00001   0.00006  -0.00021   0.00546
  73       11PZ        -0.00000  -0.00000   0.00003   0.00003   0.00068
  74 7   O  1S          0.00000   0.00000   0.00000   0.00000   0.00000
  75        2S          0.00000   0.00000   0.00000   0.00000   0.00000
  76        2PX         0.00000   0.00000   0.00000   0.00000  -0.00000
  77        2PY         0.00000   0.00000   0.00000   0.00000   0.00000
  78        2PZ         0.00000   0.00000   0.00000   0.00000   0.00000
  79        3S         -0.00000   0.00000   0.00000   0.00000  -0.00000
  80        3PX        -0.00000   0.00000   0.00000   0.00000  -0.00000
  81        3PY         0.00000   0.00000  -0.00000  -0.00000   0.00000
  82        3PZ         0.00000   0.00000  -0.00000  -0.00000   0.00000
  83        4S          0.00000   0.00000  -0.00000  -0.00000  -0.00000
  84        4PX        -0.00000  -0.00000   0.00000   0.00000  -0.00000
  85        4PY         0.00000   0.00000  -0.00000  -0.00000   0.00002
  86        4PZ         0.00000   0.00000  -0.00000  -0.00000   0.00000
  87 8   Cl 1S          0.00000   0.00000   0.00000   0.00000  -0.00000
  88        2S          0.00000   0.00000   0.00000   0.00000  -0.00000
  89        3S          0.00000   0.00000   0.00000  -0.00000   0.00000
  90        4S          0.00000   0.00000   0.00000  -0.00000   0.00000
  91        5S         -0.00000  -0.00000   0.00000   0.00000  -0.00000
  92        6S         -0.00000  -0.00000   0.00000   0.00000  -0.00005
  93        7PX         0.00000   0.00000   0.00000  -0.00000  -0.00000
  94        7PY         0.00000   0.00000   0.00000  -0.00000   0.00000
  95        7PZ         0.00000   0.00000   0.00000  -0.00000   0.00000
  96        8PX         0.00000   0.00000   0.00000   0.00000   0.00000
  97        8PY         0.00000   0.00000   0.00000   0.00000  -0.00000
  98        8PZ         0.00000   0.00000   0.00000   0.00000  -0.00000
  99        9PX        -0.00000  -0.00000   0.00000   0.00000   0.00000
 100        9PY        -0.00000  -0.00000   0.00000   0.00000  -0.00000
 101        9PZ        -0.00000  -0.00000   0.00000   0.00000  -0.00000
 102       10PX        -0.00000  -0.00000   0.00000   0.00000   0.00000
 103       10PY        -0.00000  -0.00000   0.00000   0.00000  -0.00009
 104       10PZ        -0.00000  -0.00000   0.00000   0.00000  -0.00004
 105       11PX        -0.00000  -0.00000   0.00001   0.00002  -0.00002
 106       11PY        -0.00000  -0.00000   0.00002   0.00008  -0.00133
 107       11PZ        -0.00000  -0.00000   0.00001   0.00003  -0.00045
 108 9   Cl 1S          0.00000   0.00000   0.00000   0.00000  -0.00000
 109        2S          0.00000   0.00000   0.00000   0.00000  -0.00000
 110        3S          0.00000   0.00000   0.00000  -0.00000   0.00000
 111        4S          0.00000   0.00000   0.00000  -0.00000   0.00000
 112        5S         -0.00000  -0.00000   0.00000   0.00000  -0.00000
 113        6S         -0.00000  -0.00000   0.00000   0.00000  -0.00005
 114        7PX         0.00000   0.00000   0.00000  -0.00000   0.00000
 115        7PY         0.00000   0.00000   0.00000  -0.00000   0.00000
 116        7PZ         0.00000   0.00000   0.00000   0.00000  -0.00000
 117        8PX         0.00000   0.00000   0.00000   0.00000  -0.00000
 118        8PY         0.00000   0.00000   0.00000   0.00000  -0.00000
 119        8PZ         0.00000   0.00000   0.00000  -0.00000   0.00000
 120        9PX        -0.00000  -0.00000   0.00000   0.00000  -0.00000
 121        9PY        -0.00000  -0.00000   0.00000   0.00000  -0.00000
 122        9PZ         0.00000   0.00000  -0.00000  -0.00000   0.00000
 123       10PX        -0.00000  -0.00000   0.00000   0.00000  -0.00000
 124       10PY        -0.00000  -0.00000   0.00000   0.00000  -0.00012
 125       10PZ         0.00000   0.00000  -0.00000  -0.00000   0.00000
 126       11PX        -0.00000  -0.00000   0.00000   0.00000   0.00000
 127       11PY        -0.00000  -0.00000   0.00003   0.00013  -0.00186
 128       11PZ         0.00000   0.00000  -0.00000  -0.00000   0.00005
                           6         7         8         9        10
   6        6S          0.00000
   7        7PX         0.00000   0.00000
   8        7PY         0.00000   0.00000   0.00000
   9        7PZ         0.00000   0.00000   0.00000   0.00000
  10        8PX         0.00000   0.00000   0.00000   0.00000   0.00000
  11        8PY         0.00000   0.00000   0.00000   0.00000   0.00000
  12        8PZ         0.00000   0.00000   0.00000   0.00000   0.00000
  13        9PX         0.00000   0.00000   0.00000   0.00000   0.00000
  14        9PY         0.00000   0.00000   0.00000   0.00000   0.00000
  15        9PZ         0.00000   0.00000   0.00000   0.00000   0.00000
  16       10PX         0.00000   0.00000   0.00000   0.00000   0.00000
  17       10PY         0.00000   0.00000   0.00000   0.00000   0.00000
  18       10PZ         0.00000   0.00000   0.00000   0.00000   0.00000
  19       11PX         0.00000   0.00000   0.00000   0.00000   0.00000
  20       11PY         0.00000   0.00000   0.00000   0.00000   0.00000
  21       11PZ         0.00000   0.00000   0.00000   0.00000   0.00000
  22 2   H  1S          0.00716  -0.00000  -0.00000   0.00000  -0.00005
  23        2S          0.02979  -0.00006  -0.00039   0.00000  -0.00080
  24        3S          0.01147  -0.00002  -0.00012   0.00000  -0.00026
  25        4PX         0.00020  -0.00000  -0.00001   0.00000   0.00000
  26        4PY         0.00126  -0.00001  -0.00003   0.00000  -0.00011
  27        4PZ         0.00000   0.00000   0.00000  -0.00000   0.00000
  28 3   H  1S          0.01001  -0.00000  -0.00000  -0.00000  -0.00005
  29        2S          0.03876  -0.00006  -0.00011  -0.00029  -0.00078
  30        3S          0.01061  -0.00003  -0.00004  -0.00010  -0.00033
  31        4PX         0.00020  -0.00000  -0.00000  -0.00000   0.00000
  32        4PY         0.00040  -0.00000  -0.00000  -0.00001  -0.00003
  33        4PZ         0.00105  -0.00000  -0.00001  -0.00002  -0.00009
  34 4   H  1S          0.01001  -0.00001  -0.00000   0.00000  -0.00039
  35        2S          0.03878  -0.00046  -0.00000   0.00000  -0.00605
  36        3S          0.01063  -0.00017   0.00000   0.00000  -0.00209
  37        4PX         0.00166  -0.00005  -0.00000   0.00000  -0.00085
  38        4PY         0.00000   0.00000  -0.00000   0.00000   0.00000
  39        4PZ         0.00000   0.00000   0.00000  -0.00000   0.00000
  40 5   O  1S          0.00046   0.00000   0.00000   0.00000   0.00000
  41        2S          0.00075  -0.00000  -0.00000  -0.00000   0.00000
  42        2PX         0.00004  -0.00000  -0.00000  -0.00000  -0.00000
  43        2PY        -0.00023  -0.00000  -0.00000  -0.00000  -0.00000
  44        2PZ        -0.00008  -0.00000  -0.00000  -0.00000  -0.00000
  45        3S         -0.01256  -0.00000  -0.00000  -0.00000  -0.00001
  46        3PX         0.00019  -0.00000  -0.00000  -0.00000  -0.00000
  47        3PY        -0.00127  -0.00000  -0.00000  -0.00000  -0.00001
  48        3PZ        -0.00050  -0.00000  -0.00000  -0.00000  -0.00005
  49        4S         -0.03120  -0.00001  -0.00001  -0.00004  -0.00012
  50        4PX         0.00011   0.00000  -0.00002  -0.00005   0.00004
  51        4PY        -0.00747  -0.00001  -0.00000  -0.00009  -0.00019
  52        4PZ        -0.00692  -0.00005  -0.00010  -0.00020  -0.00067
  53 6   P  1S         -0.00000   0.00000   0.00000   0.00000   0.00000
  54        2S         -0.00002   0.00000   0.00000   0.00000   0.00000
  55        3S          0.00014   0.00000   0.00000   0.00000   0.00000
  56        4S          0.00055   0.00000  -0.00000  -0.00000  -0.00000
  57        5S         -0.00322  -0.00000   0.00000   0.00000   0.00000
  58        6S         -0.00670  -0.00000   0.00001  -0.00000  -0.00000
  59        7PX        -0.00000   0.00000   0.00000   0.00000  -0.00000
  60        7PY        -0.00000   0.00000   0.00000   0.00000  -0.00000
  61        7PZ        -0.00000   0.00000   0.00000   0.00000   0.00000
  62        8PX        -0.00000  -0.00000   0.00000   0.00000  -0.00000
  63        8PY        -0.00004  -0.00000  -0.00000  -0.00000  -0.00000
  64        8PZ        -0.00003   0.00000   0.00000   0.00000   0.00000
  65        9PX         0.00000   0.00000  -0.00000  -0.00000   0.00000
  66        9PY         0.00030   0.00000   0.00000   0.00000   0.00000
  67        9PZ         0.00015   0.00000  -0.00000  -0.00000   0.00000
  68       10PX         0.00003   0.00000  -0.00000  -0.00000   0.00000
  69       10PY         0.00263   0.00000   0.00000   0.00000   0.00000
  70       10PZ         0.00253   0.00000  -0.00000  -0.00000   0.00000
  71       11PX         0.00006  -0.00000   0.00000   0.00000  -0.00001
  72       11PY        -0.01068  -0.00000  -0.00000  -0.00001  -0.00000
  73       11PZ        -0.00018  -0.00000   0.00000  -0.00000  -0.00000
  74 7   O  1S         -0.00000   0.00000   0.00000   0.00000   0.00000
  75        2S         -0.00000   0.00000   0.00000   0.00000   0.00000
  76        2PX         0.00000   0.00000   0.00000   0.00000   0.00000
  77        2PY        -0.00001   0.00000   0.00000   0.00000   0.00000
  78        2PZ        -0.00000   0.00000   0.00000   0.00000   0.00000
  79        3S          0.00003   0.00000  -0.00000  -0.00000   0.00000
  80        3PX         0.00000  -0.00000   0.00000   0.00000  -0.00000
  81        3PY        -0.00006  -0.00000  -0.00000  -0.00000  -0.00000
  82        3PZ        -0.00001  -0.00000  -0.00000  -0.00000  -0.00000
  83        4S          0.00026  -0.00000  -0.00000  -0.00000  -0.00000
  84        4PX         0.00003   0.00000  -0.00000   0.00000   0.00000
  85        4PY        -0.00047  -0.00000  -0.00000  -0.00000  -0.00000
  86        4PZ        -0.00001  -0.00000  -0.00000  -0.00000  -0.00000
  87 8   Cl 1S          0.00000   0.00000   0.00000   0.00000   0.00000
  88        2S          0.00000   0.00000   0.00000   0.00000   0.00000
  89        3S         -0.00000   0.00000   0.00000   0.00000  -0.00000
  90        4S         -0.00000   0.00000   0.00000   0.00000  -0.00000
  91        5S         -0.00005   0.00000   0.00000   0.00000   0.00000
  92        6S         -0.00030   0.00000   0.00000  -0.00000   0.00000
  93        7PX         0.00001   0.00000   0.00000   0.00000  -0.00000
  94        7PY         0.00000   0.00000   0.00000   0.00000  -0.00000
  95        7PZ        -0.00000   0.00000   0.00000   0.00000  -0.00000
  96        8PX        -0.00000   0.00000   0.00000   0.00000   0.00000
  97        8PY        -0.00000   0.00000   0.00000   0.00000   0.00000
  98        8PZ         0.00000   0.00000   0.00000   0.00000   0.00000
  99        9PX        -0.00003   0.00000   0.00000   0.00000   0.00000
 100        9PY        -0.00001   0.00000   0.00000  -0.00000   0.00000
 101        9PZ         0.00002   0.00000   0.00000   0.00000   0.00000
 102       10PX        -0.00043   0.00000   0.00000   0.00000   0.00000
 103       10PY        -0.00009   0.00000  -0.00000  -0.00000   0.00000
 104       10PZ         0.00017   0.00000   0.00000   0.00000   0.00000
 105       11PX        -0.00058  -0.00000   0.00000   0.00000  -0.00001
 106       11PY         0.00019   0.00000   0.00000  -0.00000   0.00003
 107       11PZ         0.00020   0.00000   0.00000   0.00000   0.00001
 108 9   Cl 1S          0.00000   0.00000   0.00000   0.00000   0.00000
 109        2S          0.00000   0.00000   0.00000   0.00000   0.00000
 110        3S         -0.00000   0.00000   0.00000   0.00000  -0.00000
 111        4S         -0.00000   0.00000   0.00000   0.00000  -0.00000
 112        5S         -0.00005   0.00000   0.00000   0.00000   0.00000
 113        6S         -0.00030   0.00000   0.00000   0.00000   0.00000
 114        7PX        -0.00000   0.00000   0.00000   0.00000  -0.00000
 115        7PY         0.00000   0.00000   0.00000   0.00000  -0.00000
 116        7PZ         0.00000   0.00000   0.00000   0.00000   0.00000
 117        8PX         0.00000   0.00000   0.00000   0.00000   0.00000
 118        8PY        -0.00000   0.00000   0.00000   0.00000   0.00000
 119        8PZ        -0.00000   0.00000   0.00000   0.00000  -0.00000
 120        9PX         0.00000  -0.00000   0.00000  -0.00000   0.00000
 121        9PY        -0.00003   0.00000   0.00000   0.00000   0.00000
 122        9PZ        -0.00000  -0.00000  -0.00000   0.00000  -0.00000
 123       10PX         0.00003   0.00000   0.00000  -0.00000   0.00000
 124       10PY        -0.00034   0.00000   0.00000   0.00000   0.00000
 125       10PZ        -0.00004  -0.00000  -0.00000   0.00000  -0.00000
 126       11PX        -0.00002   0.00000   0.00000  -0.00000   0.00000
 127       11PY        -0.00014   0.00000   0.00000   0.00000   0.00000
 128       11PZ        -0.00006  -0.00000  -0.00000   0.00000  -0.00000
                          11        12        13        14        15
  11        8PY         0.00000
  12        8PZ         0.00000   0.00000
  13        9PX         0.00000   0.00000   0.00000
  14        9PY         0.00000   0.00000   0.00000   0.00000
  15        9PZ         0.00000   0.00000   0.00000   0.00000   0.00000
  16       10PX         0.00000   0.00000   0.00000   0.00000   0.00000
  17       10PY         0.00000   0.00000   0.00000   0.00000   0.00000
  18       10PZ         0.00000   0.00000   0.00000   0.00000   0.00000
  19       11PX         0.00000   0.00000   0.00000   0.00000   0.00000
  20       11PY         0.00000   0.00000   0.00000   0.00000   0.00000
  21       11PZ         0.00000   0.00000   0.00000   0.00000   0.00000
  22 2   H  1S         -0.00034   0.00000   0.00110   0.00763   0.00000
  23        2S         -0.00519   0.00000   0.00523   0.03371   0.00000
  24        3S         -0.00152   0.00000   0.00158   0.00886   0.00000
  25        4PX        -0.00010   0.00000  -0.00002   0.00063   0.00000
  26        4PY        -0.00060   0.00000   0.00076   0.00337   0.00000
  27        4PZ         0.00000  -0.00001   0.00000   0.00000   0.00013
  28 3   H  1S         -0.00010  -0.00025   0.00108   0.00215   0.00556
  29        2S         -0.00150  -0.00378   0.00503   0.00962   0.02485
  30        3S         -0.00051  -0.00125   0.00211   0.00339   0.00769
  31        4PX        -0.00003  -0.00008  -0.00001   0.00019   0.00051
  32        4PY        -0.00002  -0.00013   0.00018   0.00001   0.00089
  33        4PZ        -0.00016  -0.00033   0.00058   0.00104   0.00177
  34 4   H  1S         -0.00000   0.00000   0.00879   0.00000   0.00000
  35        2S         -0.00000   0.00000   0.03950   0.00000   0.00000
  36        3S          0.00000   0.00000   0.01318   0.00000   0.00000
  37        4PX        -0.00000   0.00000   0.00489   0.00000   0.00000
  38        4PY        -0.00001   0.00000  -0.00000   0.00012   0.00000
  39        4PZ         0.00000  -0.00001   0.00000   0.00000   0.00014
  40 5   O  1S          0.00000   0.00000  -0.00000  -0.00001  -0.00002
  41        2S          0.00000   0.00000  -0.00000  -0.00001  -0.00003
  42        2PX        -0.00000  -0.00000   0.00000   0.00003   0.00011
  43        2PY        -0.00000  -0.00000   0.00004   0.00004   0.00023
  44        2PZ        -0.00000  -0.00000   0.00012   0.00019   0.00057
  45        3S         -0.00001  -0.00003   0.00018   0.00048   0.00120
  46        3PX        -0.00001  -0.00005  -0.00003   0.00027   0.00106
  47        3PY        -0.00001  -0.00009   0.00037   0.00026   0.00220
  48        3PZ        -0.00009  -0.00021   0.00116   0.00178   0.00499
  49        4S         -0.00021  -0.00067   0.00080   0.00194   0.00514
  50        4PX        -0.00022  -0.00069  -0.00099   0.00100   0.00380
  51        4PY        -0.00004  -0.00117   0.00123  -0.00022   0.00676
  52        4PZ        -0.00126  -0.00256   0.00402   0.00584   0.01428
  53 6   P  1S          0.00000   0.00000  -0.00000  -0.00000  -0.00000
  54        2S          0.00000   0.00000  -0.00000  -0.00000  -0.00000
  55        3S         -0.00000  -0.00000   0.00000   0.00000   0.00000
  56        4S         -0.00000  -0.00000   0.00000   0.00000   0.00000
  57        5S          0.00000   0.00000   0.00000  -0.00007  -0.00002
  58        6S          0.00011  -0.00000   0.00001  -0.00085   0.00004
  59        7PX         0.00000   0.00000   0.00000  -0.00000  -0.00000
  60        7PY        -0.00000  -0.00000   0.00000   0.00000   0.00000
  61        7PZ         0.00000   0.00000  -0.00000   0.00000  -0.00000
  62        8PX         0.00000   0.00000   0.00000  -0.00000  -0.00000
  63        8PY        -0.00000  -0.00000   0.00000   0.00000   0.00000
  64        8PZ         0.00000   0.00000  -0.00000   0.00000  -0.00000
  65        9PX        -0.00000  -0.00000  -0.00000   0.00000   0.00000
  66        9PY         0.00000   0.00000  -0.00000  -0.00001  -0.00001
  67        9PZ         0.00000  -0.00000  -0.00000  -0.00000   0.00000
  68       10PX        -0.00000  -0.00000  -0.00005   0.00001   0.00000
  69       10PY         0.00001   0.00002   0.00000  -0.00040  -0.00027
  70       10PZ        -0.00001  -0.00001   0.00000  -0.00000   0.00009
  71       11PX         0.00000   0.00000  -0.00008  -0.00000  -0.00000
  72       11PY        -0.00002  -0.00011   0.00001   0.00032   0.00067
  73       11PZ         0.00001  -0.00000   0.00000  -0.00005  -0.00001
  74 7   O  1S          0.00000   0.00000  -0.00000   0.00000  -0.00000
  75        2S          0.00000   0.00000  -0.00000   0.00000  -0.00000
  76        2PX         0.00000   0.00000   0.00000  -0.00000  -0.00000
  77        2PY         0.00000   0.00000   0.00000   0.00000   0.00000
  78        2PZ         0.00000   0.00000   0.00000   0.00000   0.00000
  79        3S         -0.00000  -0.00000   0.00000  -0.00000  -0.00000
  80        3PX         0.00000   0.00000  -0.00000  -0.00000  -0.00000
  81        3PY        -0.00000  -0.00000   0.00000   0.00000   0.00000
  82        3PZ        -0.00000  -0.00000   0.00000   0.00000   0.00000
  83        4S         -0.00000  -0.00000   0.00000   0.00000   0.00000
  84        4PX        -0.00000   0.00000  -0.00000   0.00000  -0.00000
  85        4PY        -0.00000  -0.00000   0.00000   0.00000   0.00000
  86        4PZ        -0.00000  -0.00000   0.00000   0.00000   0.00000
  87 8   Cl 1S          0.00000   0.00000  -0.00000  -0.00000  -0.00000
  88        2S          0.00000   0.00000  -0.00000  -0.00000  -0.00000
  89        3S         -0.00000  -0.00000   0.00000   0.00000   0.00000
  90        4S         -0.00000  -0.00000   0.00000   0.00000   0.00000
  91        5S          0.00000   0.00000  -0.00000  -0.00000  -0.00000
  92        6S          0.00000  -0.00000  -0.00000  -0.00001  -0.00000
  93        7PX        -0.00000  -0.00000   0.00000   0.00000   0.00000
  94        7PY         0.00000   0.00000   0.00000   0.00000   0.00000
  95        7PZ        -0.00000  -0.00000   0.00000   0.00000   0.00000
  96        8PX         0.00000   0.00000  -0.00000  -0.00000  -0.00000
  97        8PY        -0.00000  -0.00000  -0.00000  -0.00000  -0.00000
  98        8PZ         0.00000   0.00000  -0.00000  -0.00000  -0.00000
  99        9PX         0.00000   0.00000  -0.00000  -0.00000  -0.00000
 100        9PY         0.00000  -0.00000  -0.00000  -0.00000  -0.00000
 101        9PZ         0.00000   0.00000  -0.00000  -0.00000  -0.00000
 102       10PX         0.00000   0.00000  -0.00000  -0.00000  -0.00000
 103       10PY        -0.00000  -0.00000  -0.00001  -0.00000  -0.00000
 104       10PZ         0.00000   0.00000  -0.00000  -0.00000  -0.00000
 105       11PX         0.00000   0.00000   0.00006   0.00001  -0.00002
 106       11PY         0.00000  -0.00000  -0.00031  -0.00008  -0.00001
 107       11PZ         0.00000   0.00000  -0.00008  -0.00003  -0.00000
 108 9   Cl 1S          0.00000   0.00000  -0.00000  -0.00000  -0.00000
 109        2S          0.00000   0.00000  -0.00000  -0.00000  -0.00000
 110        3S         -0.00000  -0.00000   0.00000   0.00000   0.00000
 111        4S         -0.00000  -0.00000   0.00000   0.00000   0.00000
 112        5S          0.00000   0.00000  -0.00000  -0.00000  -0.00000
 113        6S          0.00000   0.00000   0.00000  -0.00001  -0.00000
 114        7PX        -0.00000   0.00000   0.00000   0.00000  -0.00000
 115        7PY        -0.00000  -0.00000   0.00000   0.00000   0.00000
 116        7PZ         0.00000  -0.00000  -0.00000  -0.00000   0.00000
 117        8PX         0.00000  -0.00000  -0.00000  -0.00000   0.00000
 118        8PY         0.00000   0.00000  -0.00000  -0.00000  -0.00000
 119        8PZ        -0.00000   0.00000   0.00000   0.00000  -0.00000
 120        9PX         0.00000  -0.00000  -0.00000  -0.00000   0.00000
 121        9PY         0.00000   0.00000  -0.00000  -0.00000  -0.00000
 122        9PZ        -0.00000   0.00000   0.00000   0.00000  -0.00000
 123       10PX         0.00000  -0.00000   0.00000  -0.00000   0.00000
 124       10PY         0.00000   0.00000  -0.00000  -0.00001  -0.00000
 125       10PZ        -0.00000   0.00000   0.00000   0.00000  -0.00000
 126       11PX         0.00000  -0.00000   0.00000   0.00002   0.00000
 127       11PY         0.00003   0.00000  -0.00004  -0.00039  -0.00002
 128       11PZ        -0.00000   0.00000   0.00000   0.00002  -0.00006
                          16        17        18        19        20
  16       10PX         0.00000
  17       10PY         0.00000   0.00000
  18       10PZ         0.00000   0.00000   0.00000
  19       11PX         0.00000   0.00000   0.00000   0.00000
  20       11PY         0.00000   0.00000   0.00000   0.00000   0.00000
  21       11PZ         0.00000   0.00000   0.00000   0.00000   0.00000
  22 2   H  1S          0.00343   0.02296   0.00000   0.00075   0.00600
  23        2S          0.01261   0.07941   0.00000   0.00334   0.02676
  24        3S          0.00444   0.02580   0.00000   0.00109   0.00428
  25        4PX        -0.00009   0.00075   0.00000  -0.00005   0.00008
  26        4PY         0.00094   0.00276   0.00000   0.00008  -0.00013
  27        4PZ         0.00000   0.00000   0.00028   0.00000   0.00000
  28 3   H  1S          0.00326   0.00721   0.01494   0.00010   0.00172
  29        2S          0.01218   0.02451   0.05257   0.00049   0.00637
  30        3S          0.00554   0.00836   0.02016   0.00024   0.00321
  31        4PX        -0.00009   0.00023   0.00054   0.00004   0.00003
  32        4PY         0.00022  -0.00027   0.00096   0.00000  -0.00010
  33        4PZ         0.00073   0.00145   0.00105   0.00001   0.00013
  34 4   H  1S          0.02541   0.00000   0.00000   0.00390   0.00000
  35        2S          0.08927   0.00000   0.00000   0.01555   0.00000
  36        3S          0.03407  -0.00000   0.00000   0.00522   0.00000
  37        4PX         0.00422   0.00000   0.00000  -0.00003   0.00000
  38        4PY        -0.00000   0.00030   0.00000  -0.00000   0.00008
  39        4PZ         0.00000   0.00000   0.00031   0.00000   0.00000
  40 5   O  1S         -0.00001   0.00014   0.00009  -0.00003  -0.00004
  41        2S         -0.00002   0.00024   0.00015  -0.00006  -0.00007
  42        2PX         0.00028   0.00023   0.00056   0.00023  -0.00001
  43        2PY         0.00010   0.00000   0.00106  -0.00002   0.00005
  44        2PZ         0.00044   0.00157   0.00086   0.00007   0.00009
  45        3S          0.00052  -0.00453  -0.00241   0.00088   0.00099
  46        3PX         0.00200   0.00126   0.00314   0.00145  -0.00004
  47        3PY         0.00061  -0.00002   0.00627  -0.00010   0.00025
  48        3PZ         0.00250   0.00888   0.00455   0.00039   0.00054
  49        4S          0.00010  -0.00708  -0.00664   0.00313   0.00347
  50        4PX         0.00807   0.00315   0.00773   0.00555  -0.00017
  51        4PY         0.00182  -0.00022   0.01632  -0.00053   0.00188
  52        4PZ         0.00641   0.02165   0.00875   0.00163   0.00147
  53 6   P  1S          0.00000  -0.00000  -0.00000   0.00000  -0.00002
  54        2S          0.00000  -0.00000  -0.00000   0.00000  -0.00016
  55        3S         -0.00000   0.00002   0.00000  -0.00000   0.00122
  56        4S         -0.00000   0.00008   0.00001  -0.00002   0.00460
  57        5S          0.00000  -0.00077  -0.00012   0.00009  -0.02254
  58        6S          0.00006  -0.00395   0.00192   0.00010  -0.03176
  59        7PX        -0.00000  -0.00000  -0.00000   0.00000   0.00000
  60        7PY         0.00000  -0.00000   0.00000   0.00000  -0.00001
  61        7PZ         0.00000  -0.00000  -0.00000   0.00000   0.00000
  62        8PX        -0.00000  -0.00000  -0.00000   0.00001   0.00000
  63        8PY         0.00000  -0.00002   0.00004   0.00000  -0.00010
  64        8PZ         0.00000  -0.00004  -0.00000   0.00000   0.00005
  65        9PX        -0.00000   0.00000   0.00000  -0.00008  -0.00001
  66        9PY        -0.00001   0.00007  -0.00037  -0.00001   0.00046
  67        9PZ        -0.00000   0.00017  -0.00001  -0.00000  -0.00034
  68       10PX         0.00020   0.00005   0.00001  -0.00122  -0.00004
  69       10PY        -0.00003   0.00263  -0.00032  -0.00008   0.00446
  70       10PZ        -0.00001   0.00432   0.00019  -0.00002  -0.00049
  71       11PX         0.00117  -0.00000  -0.00000  -0.00469   0.00003
  72       11PY         0.00006   0.00047   0.00472  -0.00001  -0.00167
  73       11PZ         0.00002   0.00099  -0.00016  -0.00002  -0.00259
  74 7   O  1S          0.00000  -0.00000   0.00000   0.00000  -0.00002
  75        2S          0.00000  -0.00000   0.00000   0.00000  -0.00003
  76        2PX        -0.00000  -0.00000  -0.00000  -0.00001   0.00000
  77        2PY         0.00000   0.00000   0.00000   0.00000  -0.00001
  78        2PZ         0.00000  -0.00000   0.00000  -0.00000  -0.00002
  79        3S         -0.00000   0.00000  -0.00000  -0.00003   0.00052
  80        3PX        -0.00000  -0.00000  -0.00000  -0.00007   0.00002
  81        3PY         0.00000   0.00000   0.00000   0.00000  -0.00008
  82        3PZ         0.00000  -0.00000   0.00000  -0.00002  -0.00012
  83        4S         -0.00000   0.00006   0.00001  -0.00015   0.00245
  84        4PX        -0.00000   0.00000  -0.00001  -0.00047   0.00019
  85        4PY         0.00002   0.00006   0.00013  -0.00001  -0.00018
  86        4PZ        -0.00000   0.00002   0.00002  -0.00013   0.00002
  87 8   Cl 1S         -0.00000   0.00000   0.00000   0.00000  -0.00000
  88        2S         -0.00000   0.00000   0.00000   0.00001  -0.00001
  89        3S          0.00000  -0.00000  -0.00000  -0.00004   0.00004
  90        4S          0.00000  -0.00000  -0.00000  -0.00012   0.00014
  91        5S         -0.00005   0.00000  -0.00000   0.00043  -0.00038
  92        6S         -0.00029  -0.00002  -0.00002   0.00255   0.00119
  93        7PX         0.00000   0.00000  -0.00000  -0.00000   0.00008
  94        7PY         0.00000  -0.00000  -0.00000   0.00002  -0.00004
  95        7PZ         0.00000   0.00000  -0.00000   0.00000  -0.00004
  96        8PX        -0.00000  -0.00000   0.00000   0.00000  -0.00002
  97        8PY        -0.00000   0.00000   0.00000  -0.00000   0.00001
  98        8PZ        -0.00000  -0.00000   0.00000  -0.00000   0.00001
  99        9PX        -0.00000  -0.00000   0.00000   0.00000  -0.00037
 100        9PY        -0.00002   0.00000   0.00000  -0.00009   0.00021
 101        9PZ        -0.00001  -0.00000   0.00000  -0.00001   0.00021
 102       10PX        -0.00009  -0.00006   0.00004   0.00009  -0.00294
 103       10PY        -0.00035   0.00009   0.00006  -0.00069   0.00147
 104       10PZ        -0.00012  -0.00001   0.00003  -0.00007   0.00156
 105       11PX         0.00005  -0.00017   0.00009   0.00014  -0.00184
 106       11PY        -0.00112  -0.00001   0.00016  -0.00104   0.00150
 107       11PZ        -0.00036  -0.00038   0.00003  -0.00010   0.00239
 108 9   Cl 1S         -0.00000   0.00000  -0.00000   0.00000  -0.00000
 109        2S         -0.00000   0.00000  -0.00000   0.00000  -0.00000
 110        3S          0.00000   0.00000   0.00000  -0.00001   0.00001
 111        4S          0.00000   0.00000   0.00000  -0.00004   0.00006
 112        5S         -0.00001  -0.00004  -0.00000   0.00013  -0.00007
 113        6S         -0.00004  -0.00028  -0.00002   0.00042   0.00385
 114        7PX         0.00000   0.00000   0.00000  -0.00000   0.00000
 115        7PY         0.00000   0.00000   0.00000   0.00002  -0.00001
 116        7PZ        -0.00000  -0.00000   0.00000  -0.00000   0.00001
 117        8PX        -0.00000  -0.00000  -0.00000   0.00000  -0.00000
 118        8PY        -0.00000  -0.00000  -0.00000  -0.00000   0.00000
 119        8PZ         0.00000  -0.00000  -0.00000   0.00000  -0.00000
 120        9PX        -0.00000  -0.00000  -0.00000   0.00001  -0.00001
 121        9PY        -0.00000  -0.00002  -0.00000  -0.00009   0.00007
 122        9PZ         0.00000   0.00000  -0.00000   0.00001  -0.00005
 123       10PX        -0.00001  -0.00003  -0.00000   0.00002  -0.00006
 124       10PY        -0.00003  -0.00027  -0.00005  -0.00064   0.00051
 125       10PZ         0.00000  -0.00000  -0.00002   0.00004  -0.00039
 126       11PX        -0.00022  -0.00010  -0.00000   0.00043   0.00037
 127       11PY         0.00007  -0.00112  -0.00012  -0.00073   0.00284
 128       11PZ        -0.00000   0.00004  -0.00029   0.00006  -0.00031
                          21        22        23        24        25
  21       11PZ         0.00000
  22 2   H  1S          0.00000   0.00000
  23        2S          0.00000   0.00000   0.00000
  24        3S          0.00000   0.00000   0.00000   0.00000
  25        4PX         0.00000   0.00000   0.00000   0.00000   0.00000
  26        4PY         0.00000   0.00000   0.00000   0.00000   0.00000
  27        4PZ         0.00001   0.00000   0.00000   0.00000   0.00000
  28 3   H  1S          0.00208  -0.00000  -0.00009  -0.00082   0.00000
  29        2S          0.00869  -0.00009  -0.00223  -0.00562   0.00000
  30        3S          0.00177  -0.00095  -0.00674  -0.00659   0.00000
  31        4PX         0.00003  -0.00000  -0.00000  -0.00000  -0.00000
  32        4PY         0.00005   0.00000  -0.00001  -0.00007   0.00000
  33        4PZ        -0.00011  -0.00000  -0.00006  -0.00013   0.00000
  34 4   H  1S          0.00000  -0.00000  -0.00009  -0.00082   0.00000
  35        2S          0.00000  -0.00009  -0.00223  -0.00563   0.00001
  36        3S          0.00000  -0.00095  -0.00674  -0.00660  -0.00000
  37        4PX         0.00000  -0.00000  -0.00011  -0.00025   0.00000
  38        4PY         0.00000   0.00000   0.00003   0.00005   0.00000
  39        4PZ         0.00004   0.00000   0.00000   0.00000   0.00000
  40 5   O  1S         -0.00018   0.00000   0.00000  -0.00001  -0.00000
  41        2S         -0.00030  -0.00000   0.00000  -0.00002  -0.00000
  42        2PX         0.00008  -0.00000   0.00000   0.00000  -0.00000
  43        2PY         0.00004  -0.00000  -0.00001  -0.00007   0.00000
  44        2PZ        -0.00000  -0.00000   0.00000   0.00001  -0.00000
  45        3S          0.00452  -0.00000  -0.00007   0.00024   0.00000
  46        3PX         0.00046  -0.00000   0.00000   0.00001  -0.00000
  47        3PY         0.00026  -0.00000  -0.00013  -0.00045   0.00000
  48        3PZ         0.00001  -0.00000   0.00001   0.00006  -0.00000
  49        4S          0.01601  -0.00005  -0.00134   0.00037   0.00000
  50        4PX         0.00200  -0.00000   0.00005   0.00005  -0.00000
  51        4PY         0.00001  -0.00013  -0.00251  -0.00249   0.00001
  52        4PZ         0.00012  -0.00006   0.00007   0.00014  -0.00000
  53 6   P  1S         -0.00000   0.00000   0.00000  -0.00000   0.00000
  54        2S         -0.00002   0.00000   0.00000  -0.00000   0.00000
  55        3S          0.00017   0.00000  -0.00000   0.00001  -0.00000
  56        4S          0.00066  -0.00000  -0.00000   0.00003  -0.00000
  57        5S         -0.00296   0.00000   0.00000  -0.00028   0.00000
  58        6S         -0.00512   0.00001   0.00019  -0.00128   0.00000
  59        7PX         0.00000   0.00000  -0.00000  -0.00000  -0.00000
  60        7PY         0.00000   0.00000  -0.00000  -0.00000  -0.00000
  61        7PZ         0.00000   0.00000  -0.00000   0.00000  -0.00000
  62        8PX         0.00000  -0.00000  -0.00000  -0.00000   0.00000
  63        8PY         0.00003  -0.00000  -0.00000  -0.00001  -0.00000
  64        8PZ         0.00000  -0.00000  -0.00000   0.00000  -0.00000
  65        9PX        -0.00000   0.00000   0.00000   0.00000  -0.00000
  66        9PY        -0.00009   0.00000   0.00000   0.00005   0.00000
  67        9PZ         0.00000   0.00000   0.00000  -0.00000   0.00000
  68       10PX        -0.00001   0.00000   0.00000   0.00003  -0.00000
  69       10PY        -0.00259   0.00000   0.00003   0.00084   0.00000
  70       10PZ         0.00012   0.00000   0.00001   0.00004   0.00000
  71       11PX        -0.00001  -0.00001  -0.00005  -0.00003   0.00000
  72       11PY        -0.00517  -0.00005  -0.00031  -0.00114  -0.00000
  73       11PZ        -0.00063   0.00002   0.00021  -0.00008   0.00000
  74 7   O  1S         -0.00000   0.00000  -0.00000  -0.00000   0.00000
  75        2S         -0.00000   0.00000  -0.00000  -0.00000   0.00000
  76        2PX        -0.00000   0.00000  -0.00000  -0.00000   0.00000
  77        2PY        -0.00004   0.00000  -0.00000  -0.00000   0.00000
  78        2PZ         0.00002   0.00000  -0.00000  -0.00000   0.00000
  79        3S          0.00003   0.00000   0.00000   0.00000  -0.00000
  80        3PX        -0.00001   0.00000  -0.00000  -0.00000   0.00000
  81        3PY        -0.00028  -0.00000  -0.00000  -0.00000   0.00000
  82        3PZ         0.00013  -0.00000  -0.00000  -0.00000   0.00000
  83        4S          0.00010  -0.00000   0.00000   0.00001  -0.00000
  84        4PX        -0.00003   0.00000   0.00000   0.00000   0.00000
  85        4PY        -0.00154  -0.00000  -0.00000  -0.00001   0.00000
  86        4PZ         0.00072  -0.00000  -0.00000  -0.00000   0.00000
  87 8   Cl 1S          0.00000   0.00000   0.00000  -0.00000  -0.00000
  88        2S          0.00000   0.00000   0.00000  -0.00000   0.00000
  89        3S         -0.00000   0.00000  -0.00000   0.00000   0.00000
  90        4S         -0.00001   0.00000  -0.00000   0.00000   0.00000
  91        5S          0.00005   0.00000   0.00000   0.00000  -0.00000
  92        6S          0.00067  -0.00000  -0.00000   0.00003  -0.00000
  93        7PX         0.00002   0.00000   0.00000   0.00000   0.00000
  94        7PY         0.00001   0.00000  -0.00000  -0.00000   0.00000
  95        7PZ         0.00000   0.00000  -0.00000  -0.00000  -0.00000
  96        8PX        -0.00000   0.00000  -0.00000  -0.00000  -0.00000
  97        8PY        -0.00000   0.00000   0.00000   0.00000  -0.00000
  98        8PZ        -0.00000   0.00000   0.00000   0.00000   0.00000
  99        9PX        -0.00007  -0.00000  -0.00000  -0.00000  -0.00000
 100        9PY        -0.00004   0.00000   0.00000   0.00000  -0.00000
 101        9PZ         0.00000   0.00000   0.00000   0.00000   0.00000
 102       10PX        -0.00050  -0.00000  -0.00000  -0.00003  -0.00000
 103       10PY        -0.00032   0.00000   0.00000   0.00004  -0.00000
 104       10PZ         0.00002   0.00000   0.00000   0.00002   0.00000
 105       11PX        -0.00029  -0.00000  -0.00002  -0.00015  -0.00000
 106       11PY         0.00011   0.00000   0.00003   0.00039  -0.00000
 107       11PZ         0.00016   0.00000   0.00001   0.00018  -0.00000
 108 9   Cl 1S          0.00000   0.00000   0.00000  -0.00000  -0.00000
 109        2S          0.00000   0.00000   0.00000  -0.00000   0.00000
 110        3S         -0.00000   0.00000  -0.00000   0.00000   0.00000
 111        4S         -0.00001   0.00000  -0.00000   0.00000   0.00000
 112        5S          0.00003   0.00000   0.00000   0.00000  -0.00000
 113        6S          0.00012  -0.00000  -0.00000   0.00003   0.00000
 114        7PX        -0.00000   0.00000  -0.00000  -0.00000  -0.00000
 115        7PY         0.00000   0.00000  -0.00000  -0.00000   0.00000
 116        7PZ         0.00002   0.00000   0.00000   0.00000  -0.00000
 117        8PX         0.00000   0.00000   0.00000   0.00000   0.00000
 118        8PY        -0.00000   0.00000   0.00000   0.00000  -0.00000
 119        8PZ        -0.00000   0.00000  -0.00000  -0.00000   0.00000
 120        9PX         0.00000   0.00000   0.00000   0.00000   0.00000
 121        9PY        -0.00001   0.00000   0.00000   0.00000  -0.00000
 122        9PZ        -0.00010  -0.00000  -0.00000  -0.00000   0.00000
 123       10PX         0.00001   0.00000   0.00000   0.00000   0.00000
 124       10PY        -0.00003   0.00000   0.00000   0.00003  -0.00000
 125       10PZ        -0.00089  -0.00000  -0.00000  -0.00000   0.00000
 126       11PX         0.00002   0.00000  -0.00000   0.00001  -0.00000
 127       11PY        -0.00010   0.00000   0.00002   0.00044  -0.00000
 128       11PZ        -0.00157  -0.00000  -0.00000  -0.00002   0.00000
                          26        27        28        29        30
  26        4PY         0.00000
  27        4PZ         0.00000   0.00000
  28 3   H  1S         -0.00000   0.00000   0.00000
  29        2S         -0.00009   0.00002   0.00000   0.00000
  30        3S         -0.00029   0.00005   0.00000   0.00000   0.00000
  31        4PX        -0.00000   0.00000   0.00000   0.00000   0.00000
  32        4PY         0.00000   0.00000   0.00000   0.00000   0.00000
  33        4PZ        -0.00000   0.00000   0.00000   0.00000   0.00000
  34 4   H  1S         -0.00000   0.00000  -0.00000  -0.00010  -0.00143
  35        2S         -0.00008   0.00000  -0.00010  -0.00263  -0.00960
  36        3S         -0.00024   0.00000  -0.00143  -0.00960  -0.01292
  37        4PX        -0.00000   0.00000  -0.00000  -0.00014  -0.00046
  38        4PY         0.00000   0.00000   0.00000   0.00001   0.00002
  39        4PZ         0.00000   0.00000   0.00000   0.00003   0.00005
  40 5   O  1S          0.00000  -0.00000   0.00000   0.00000  -0.00004
  41        2S          0.00000  -0.00000  -0.00000   0.00000  -0.00007
  42        2PX         0.00000  -0.00000   0.00000   0.00000   0.00001
  43        2PY        -0.00000   0.00000   0.00000   0.00000   0.00001
  44        2PZ         0.00000   0.00000  -0.00000  -0.00002  -0.00033
  45        3S         -0.00000   0.00000  -0.00000  -0.00000   0.00142
  46        3PX         0.00000  -0.00000   0.00000   0.00000   0.00005
  47        3PY        -0.00000   0.00000   0.00000   0.00000   0.00005
  48        3PZ         0.00000   0.00000  -0.00000  -0.00029  -0.00220
  49        4S         -0.00009   0.00000  -0.00003  -0.00057   0.00484
  50        4PX         0.00001  -0.00000   0.00000   0.00007   0.00030
  51        4PY        -0.00015   0.00004  -0.00000   0.00006   0.00019
  52        4PZ         0.00003   0.00002  -0.00034  -0.00620  -0.01141
  53 6   P  1S          0.00000   0.00000  -0.00000   0.00000  -0.00000
  54        2S          0.00000   0.00000  -0.00000   0.00000  -0.00000
  55        3S         -0.00000  -0.00000   0.00000  -0.00000   0.00002
  56        4S         -0.00000  -0.00000   0.00000  -0.00000   0.00007
  57        5S          0.00000   0.00000  -0.00000  -0.00001  -0.00062
  58        6S          0.00001   0.00000  -0.00007  -0.00020  -0.00218
  59        7PX        -0.00000  -0.00000   0.00000   0.00000   0.00000
  60        7PY        -0.00000   0.00000   0.00000   0.00000   0.00000
  61        7PZ        -0.00000   0.00000   0.00000   0.00000   0.00000
  62        8PX        -0.00000  -0.00000   0.00000   0.00000   0.00000
  63        8PY        -0.00000   0.00000   0.00000   0.00000   0.00001
  64        8PZ        -0.00000   0.00000   0.00000   0.00000   0.00002
  65        9PX         0.00000   0.00000  -0.00000  -0.00000  -0.00001
  66        9PY         0.00000  -0.00000  -0.00000  -0.00000  -0.00005
  67        9PZ         0.00000  -0.00000  -0.00000  -0.00000  -0.00012
  68       10PX        -0.00000   0.00000  -0.00000  -0.00002  -0.00007
  69       10PY         0.00000  -0.00000  -0.00000  -0.00007  -0.00126
  70       10PZ         0.00000  -0.00000  -0.00001  -0.00039  -0.00232
  71       11PX        -0.00000   0.00000  -0.00001  -0.00016   0.00005
  72       11PY        -0.00001   0.00001  -0.00010   0.00036  -0.00186
  73       11PZ         0.00001  -0.00000  -0.00026  -0.00207  -0.00192
  74 7   O  1S          0.00000   0.00000   0.00000   0.00000   0.00000
  75        2S          0.00000   0.00000   0.00000   0.00000   0.00000
  76        2PX         0.00000   0.00000   0.00000  -0.00000  -0.00000
  77        2PY         0.00000   0.00000   0.00000   0.00000  -0.00000
  78        2PZ         0.00000   0.00000   0.00000   0.00000   0.00000
  79        3S          0.00000  -0.00000  -0.00000  -0.00000  -0.00000
  80        3PX        -0.00000  -0.00000  -0.00000  -0.00000  -0.00000
  81        3PY        -0.00000   0.00000  -0.00000   0.00000  -0.00000
  82        3PZ        -0.00000   0.00000   0.00000   0.00000   0.00001
  83        4S          0.00000  -0.00000  -0.00000  -0.00000  -0.00004
  84        4PX        -0.00000  -0.00000  -0.00000  -0.00000  -0.00000
  85        4PY        -0.00000   0.00000  -0.00000   0.00000  -0.00005
  86        4PZ        -0.00000   0.00000   0.00000   0.00000   0.00007
  87 8   Cl 1S          0.00000  -0.00000   0.00000  -0.00000   0.00000
  88        2S          0.00000   0.00000   0.00000  -0.00000   0.00000
  89        3S         -0.00000   0.00000   0.00000   0.00000  -0.00000
  90        4S         -0.00000   0.00000  -0.00000  -0.00000  -0.00000
  91        5S          0.00000  -0.00000   0.00000   0.00000   0.00004
  92        6S         -0.00000   0.00000  -0.00000  -0.00001   0.00015
  93        7PX         0.00000  -0.00000   0.00000  -0.00000   0.00000
  94        7PY        -0.00000  -0.00000  -0.00000  -0.00000   0.00000
  95        7PZ        -0.00000   0.00000   0.00000   0.00000   0.00000
  96        8PX        -0.00000   0.00000  -0.00000   0.00000  -0.00000
  97        8PY         0.00000   0.00000   0.00000   0.00000  -0.00000
  98        8PZ         0.00000  -0.00000  -0.00000  -0.00000  -0.00000
  99        9PX        -0.00000   0.00000  -0.00000   0.00000  -0.00000
 100        9PY         0.00000   0.00000   0.00000   0.00000  -0.00000
 101        9PZ         0.00000  -0.00000  -0.00000   0.00000  -0.00001
 102       10PX        -0.00000   0.00000  -0.00000  -0.00000  -0.00001
 103       10PY         0.00000   0.00000   0.00000   0.00000  -0.00006
 104       10PZ         0.00000  -0.00000  -0.00000  -0.00000  -0.00010
 105       11PX        -0.00000   0.00000  -0.00001  -0.00006  -0.00004
 106       11PY         0.00000   0.00000   0.00000   0.00002  -0.00008
 107       11PZ         0.00000  -0.00000  -0.00000   0.00003  -0.00031
 108 9   Cl 1S          0.00000  -0.00000  -0.00000  -0.00000  -0.00000
 109        2S          0.00000   0.00000  -0.00000  -0.00000  -0.00000
 110        3S         -0.00000   0.00000   0.00000   0.00000   0.00003
 111        4S         -0.00000   0.00000   0.00000   0.00000   0.00010
 112        5S          0.00000  -0.00000  -0.00000  -0.00002  -0.00054
 113        6S         -0.00000   0.00000   0.00000   0.00027  -0.00028
 114        7PX         0.00000  -0.00000   0.00000   0.00000   0.00000
 115        7PY        -0.00000   0.00000   0.00000   0.00000   0.00004
 116        7PZ         0.00000  -0.00000   0.00000   0.00000   0.00001
 117        8PX        -0.00000   0.00000  -0.00000  -0.00000  -0.00000
 118        8PY         0.00000  -0.00000  -0.00000  -0.00000  -0.00001
 119        8PZ        -0.00000   0.00000  -0.00000  -0.00000  -0.00000
 120        9PX        -0.00000   0.00000  -0.00000  -0.00000  -0.00001
 121        9PY         0.00000  -0.00000  -0.00000  -0.00001  -0.00024
 122        9PZ        -0.00000   0.00000  -0.00000  -0.00000  -0.00005
 123       10PX        -0.00000   0.00000  -0.00000   0.00000  -0.00005
 124       10PY         0.00000  -0.00000  -0.00000  -0.00022  -0.00163
 125       10PZ        -0.00000   0.00000  -0.00000  -0.00017  -0.00039
 126       11PX        -0.00000   0.00000   0.00001   0.00005  -0.00002
 127       11PY         0.00000  -0.00000  -0.00027  -0.00190  -0.00369
 128       11PZ        -0.00000  -0.00000  -0.00017  -0.00154  -0.00148
                          31        32        33        34        35
  31        4PX         0.00000
  32        4PY         0.00000   0.00000
  33        4PZ         0.00000   0.00000   0.00000
  34 4   H  1S          0.00000  -0.00000  -0.00000   0.00000
  35        2S          0.00000  -0.00003  -0.00008   0.00000   0.00000
  36        3S         -0.00006  -0.00009  -0.00024   0.00000   0.00000
  37        4PX         0.00000  -0.00000  -0.00000   0.00000   0.00000
  38        4PY         0.00000   0.00000   0.00000   0.00000   0.00000
  39        4PZ         0.00000   0.00000   0.00000   0.00000   0.00000
  40 5   O  1S          0.00000  -0.00000  -0.00000   0.00000   0.00000
  41        2S          0.00000  -0.00000   0.00000  -0.00000   0.00000
  42        2PX        -0.00000  -0.00000   0.00000  -0.00000  -0.00001
  43        2PY        -0.00000   0.00000   0.00000  -0.00000  -0.00000
  44        2PZ         0.00000   0.00000  -0.00000  -0.00000  -0.00000
  45        3S         -0.00000   0.00000  -0.00000  -0.00000  -0.00000
  46        3PX        -0.00000  -0.00000   0.00000  -0.00000  -0.00022
  47        3PY        -0.00000   0.00000   0.00000  -0.00000  -0.00002
  48        3PZ         0.00000   0.00000  -0.00000  -0.00000  -0.00004
  49        4S          0.00000   0.00000  -0.00003  -0.00003  -0.00057
  50        4PX        -0.00000  -0.00000   0.00001  -0.00022  -0.00466
  51        4PY        -0.00000   0.00000   0.00001  -0.00004  -0.00052
  52        4PZ         0.00002   0.00002  -0.00036  -0.00008  -0.00088
  53 6   P  1S          0.00000   0.00000  -0.00000  -0.00000   0.00000
  54        2S          0.00000   0.00000  -0.00000  -0.00000   0.00000
  55        3S          0.00000  -0.00000   0.00000   0.00000  -0.00000
  56        4S          0.00000  -0.00000   0.00000   0.00000  -0.00000
  57        5S         -0.00000   0.00000  -0.00000  -0.00000  -0.00001
  58        6S         -0.00000   0.00001  -0.00001  -0.00007  -0.00020
  59        7PX         0.00000  -0.00000   0.00000   0.00000   0.00000
  60        7PY         0.00000  -0.00000   0.00000   0.00000   0.00000
  61        7PZ         0.00000  -0.00000   0.00000   0.00000   0.00000
  62        8PX        -0.00000  -0.00000   0.00000   0.00000   0.00000
  63        8PY         0.00000  -0.00000   0.00000   0.00000   0.00000
  64        8PZ         0.00000  -0.00000   0.00000   0.00000   0.00000
  65        9PX         0.00000   0.00000  -0.00000  -0.00000  -0.00000
  66        9PY        -0.00000   0.00000  -0.00000  -0.00000  -0.00000
  67        9PZ        -0.00000   0.00000  -0.00000  -0.00000  -0.00000
  68       10PX         0.00000   0.00000  -0.00000  -0.00000  -0.00017
  69       10PY        -0.00000   0.00000  -0.00000  -0.00001  -0.00024
  70       10PZ        -0.00000   0.00001  -0.00002  -0.00000  -0.00006
  71       11PX         0.00000   0.00000  -0.00001  -0.00009  -0.00127
  72       11PY         0.00000   0.00000   0.00002  -0.00022  -0.00054
  73       11PZ        -0.00001   0.00005  -0.00006  -0.00006  -0.00006
  74 7   O  1S         -0.00000   0.00000   0.00000   0.00000   0.00000
  75        2S          0.00000  -0.00000  -0.00000   0.00000   0.00000
  76        2PX        -0.00000   0.00000  -0.00000   0.00000   0.00000
  77        2PY        -0.00000   0.00000   0.00000   0.00000   0.00000
  78        2PZ        -0.00000  -0.00000   0.00000   0.00000   0.00000
  79        3S          0.00000  -0.00000  -0.00000  -0.00000  -0.00000
  80        3PX        -0.00000   0.00000  -0.00000   0.00000   0.00000
  81        3PY        -0.00000   0.00000   0.00000  -0.00000   0.00000
  82        3PZ        -0.00000  -0.00000   0.00000  -0.00000   0.00000
  83        4S          0.00000   0.00000  -0.00000  -0.00000  -0.00000
  84        4PX        -0.00000   0.00000  -0.00000   0.00000   0.00000
  85        4PY         0.00000   0.00000   0.00000  -0.00000   0.00000
  86        4PZ        -0.00000   0.00000   0.00000  -0.00000  -0.00000
  87 8   Cl 1S          0.00000  -0.00000  -0.00000  -0.00000  -0.00000
  88        2S          0.00000  -0.00000  -0.00000  -0.00000  -0.00000
  89        3S          0.00000   0.00000   0.00000   0.00000   0.00000
  90        4S          0.00000   0.00000   0.00000   0.00000   0.00000
  91        5S          0.00000  -0.00000   0.00000  -0.00000  -0.00002
  92        6S         -0.00000   0.00000  -0.00000   0.00000   0.00027
  93        7PX        -0.00000  -0.00000   0.00000  -0.00000  -0.00000
  94        7PY         0.00000   0.00000   0.00000   0.00000   0.00000
  95        7PZ         0.00000   0.00000   0.00000   0.00000   0.00000
  96        8PX         0.00000   0.00000  -0.00000   0.00000   0.00000
  97        8PY        -0.00000  -0.00000  -0.00000  -0.00000  -0.00000
  98        8PZ        -0.00000  -0.00000  -0.00000  -0.00000  -0.00000
  99        9PX         0.00000   0.00000  -0.00000   0.00000   0.00000
 100        9PY        -0.00000  -0.00000  -0.00000  -0.00000  -0.00001
 101        9PZ        -0.00000  -0.00000  -0.00000  -0.00000  -0.00001
 102       10PX         0.00000   0.00000  -0.00000   0.00000   0.00005
 103       10PY        -0.00000  -0.00000  -0.00000  -0.00000  -0.00028
 104       10PZ        -0.00000  -0.00000  -0.00000  -0.00000  -0.00015
 105       11PX         0.00000   0.00000  -0.00000   0.00005   0.00051
 106       11PY        -0.00000  -0.00000  -0.00000  -0.00036  -0.00273
 107       11PZ         0.00000  -0.00000  -0.00000  -0.00013  -0.00116
 108 9   Cl 1S          0.00000   0.00000  -0.00000   0.00000  -0.00000
 109        2S          0.00000   0.00000  -0.00000   0.00000  -0.00000
 110        3S         -0.00000  -0.00000   0.00000   0.00000   0.00000
 111        4S         -0.00000  -0.00000   0.00000  -0.00000  -0.00000
 112        5S          0.00000   0.00000  -0.00000   0.00000   0.00000
 113        6S         -0.00000   0.00001   0.00001  -0.00000  -0.00001
 114        7PX        -0.00000  -0.00000   0.00000   0.00000   0.00000
 115        7PY        -0.00000  -0.00000   0.00000   0.00000  -0.00000
 116        7PZ        -0.00000  -0.00000   0.00000   0.00000  -0.00000
 117        8PX         0.00000   0.00000  -0.00000  -0.00000  -0.00000
 118        8PY         0.00000   0.00000  -0.00000  -0.00000   0.00000
 119        8PZ         0.00000   0.00000  -0.00000  -0.00000  -0.00000
 120        9PX         0.00000   0.00000  -0.00000  -0.00000  -0.00000
 121        9PY         0.00000   0.00000  -0.00000   0.00000   0.00000
 122        9PZ         0.00000   0.00000  -0.00000  -0.00000   0.00000
 123       10PX         0.00000   0.00000  -0.00000  -0.00000  -0.00000
 124       10PY         0.00000   0.00002  -0.00000  -0.00000   0.00000
 125       10PZ         0.00000   0.00001  -0.00000  -0.00000  -0.00000
 126       11PX         0.00002  -0.00000   0.00000  -0.00000  -0.00001
 127       11PY         0.00000   0.00016  -0.00003  -0.00000   0.00000
 128       11PZ         0.00000   0.00008   0.00001  -0.00000  -0.00000
                          36        37        38        39        40
  36        3S          0.00000
  37        4PX         0.00000   0.00000
  38        4PY         0.00000   0.00000   0.00000
  39        4PZ         0.00000   0.00000   0.00000   0.00000
  40 5   O  1S         -0.00004   0.00000  -0.00000  -0.00000   0.00000
  41        2S         -0.00007   0.00000  -0.00000   0.00000   0.00000
  42        2PX        -0.00029  -0.00000   0.00000   0.00000   0.00000
  43        2PY        -0.00002  -0.00000   0.00000   0.00000   0.00000
  44        2PZ         0.00000  -0.00000  -0.00000   0.00000   0.00000
  45        3S          0.00141  -0.00000   0.00000  -0.00000   0.00000
  46        3PX        -0.00194  -0.00000   0.00000   0.00000   0.00000
  47        3PY        -0.00017  -0.00000   0.00000   0.00000   0.00000
  48        3PZ         0.00001  -0.00000  -0.00000   0.00000   0.00000
  49        4S          0.00483  -0.00003   0.00000  -0.00000   0.00000
  50        4PX        -0.01005  -0.00031   0.00001   0.00006   0.00000
  51        4PY        -0.00124  -0.00004   0.00000   0.00000   0.00000
  52        4PZ         0.00039  -0.00005  -0.00001   0.00002   0.00000
  53 6   P  1S         -0.00000  -0.00000   0.00000   0.00000   0.00000
  54        2S         -0.00000  -0.00000   0.00000   0.00000   0.00000
  55        3S          0.00002   0.00000  -0.00000  -0.00000  -0.00000
  56        4S          0.00007   0.00000  -0.00000  -0.00000  -0.00000
  57        5S         -0.00061  -0.00000   0.00000   0.00000   0.00003
  58        6S         -0.00218  -0.00001   0.00000   0.00000   0.00080
  59        7PX         0.00000   0.00000  -0.00000   0.00000   0.00000
  60        7PY         0.00000   0.00000   0.00000  -0.00000   0.00000
  61        7PZ         0.00000   0.00000   0.00000  -0.00000   0.00000
  62        8PX         0.00001   0.00000  -0.00000   0.00000   0.00000
  63        8PY         0.00002   0.00000   0.00000  -0.00000   0.00000
  64        8PZ         0.00001   0.00000   0.00000  -0.00000   0.00000
  65        9PX        -0.00004  -0.00000   0.00000  -0.00000  -0.00000
  66        9PY        -0.00011  -0.00000  -0.00000   0.00000  -0.00001
  67        9PZ        -0.00003  -0.00000  -0.00000   0.00000   0.00000
  68       10PX        -0.00064  -0.00000   0.00000  -0.00000  -0.00002
  69       10PY        -0.00224  -0.00001  -0.00000   0.00000   0.00031
  70       10PZ        -0.00076  -0.00000  -0.00000   0.00000  -0.00000
  71       11PX        -0.00009  -0.00000   0.00000   0.00001  -0.00002
  72       11PY        -0.00253  -0.00002   0.00001   0.00001   0.00046
  73       11PZ        -0.00111  -0.00000  -0.00000  -0.00000  -0.00000
  74 7   O  1S          0.00000   0.00000   0.00000  -0.00000   0.00000
  75        2S          0.00000  -0.00000  -0.00000   0.00000  -0.00000
  76        2PX         0.00000   0.00000  -0.00000  -0.00000  -0.00000
  77        2PY        -0.00000   0.00000   0.00000   0.00000   0.00000
  78        2PZ        -0.00000  -0.00000   0.00000   0.00000   0.00000
  79        3S         -0.00000  -0.00000  -0.00000  -0.00000  -0.00000
  80        3PX         0.00000   0.00000  -0.00000  -0.00000  -0.00000
  81        3PY        -0.00000   0.00000   0.00000   0.00000   0.00000
  82        3PZ        -0.00000   0.00000   0.00000   0.00000   0.00000
  83        4S         -0.00004  -0.00000  -0.00000   0.00000   0.00000
  84        4PX         0.00006   0.00000  -0.00000  -0.00000  -0.00000
  85        4PY        -0.00001   0.00000   0.00000   0.00000   0.00001
  86        4PZ        -0.00004  -0.00000   0.00000   0.00000   0.00000
  87 8   Cl 1S         -0.00000   0.00000   0.00000   0.00000   0.00000
  88        2S         -0.00000   0.00000   0.00000   0.00000   0.00000
  89        3S          0.00003  -0.00000  -0.00000  -0.00000   0.00000
  90        4S          0.00010  -0.00000  -0.00000  -0.00000   0.00000
  91        5S         -0.00054   0.00000   0.00000   0.00000  -0.00000
  92        6S         -0.00028  -0.00000   0.00001   0.00000  -0.00000
  93        7PX         0.00000   0.00000  -0.00000   0.00000  -0.00000
  94        7PY         0.00003  -0.00000  -0.00000  -0.00000  -0.00000
  95        7PZ         0.00002  -0.00000  -0.00000   0.00000  -0.00000
  96        8PX        -0.00000  -0.00000   0.00000  -0.00000   0.00000
  97        8PY        -0.00001   0.00000   0.00000   0.00000   0.00000
  98        8PZ        -0.00000   0.00000   0.00000  -0.00000   0.00000
  99        9PX        -0.00001   0.00000   0.00000  -0.00000   0.00000
 100        9PY        -0.00018   0.00000   0.00000   0.00000   0.00000
 101        9PZ        -0.00010   0.00000   0.00000  -0.00000   0.00000
 102       10PX        -0.00002   0.00000   0.00000  -0.00000  -0.00000
 103       10PY        -0.00127   0.00000   0.00001   0.00000   0.00000
 104       10PZ        -0.00077   0.00000   0.00000  -0.00000   0.00000
 105       11PX         0.00027   0.00003   0.00000  -0.00000  -0.00002
 106       11PY        -0.00372   0.00004   0.00006   0.00005   0.00001
 107       11PZ        -0.00174   0.00002   0.00005  -0.00000   0.00000
 108 9   Cl 1S          0.00000  -0.00000  -0.00000   0.00000   0.00000
 109        2S          0.00000  -0.00000  -0.00000   0.00000   0.00000
 110        3S         -0.00000   0.00000   0.00000  -0.00000   0.00000
 111        4S         -0.00000  -0.00000   0.00000  -0.00000   0.00000
 112        5S          0.00004   0.00000  -0.00000  -0.00000  -0.00000
 113        6S          0.00015  -0.00000  -0.00000   0.00000  -0.00000
 114        7PX         0.00000   0.00000   0.00000  -0.00000   0.00000
 115        7PY         0.00000   0.00000   0.00000   0.00000  -0.00000
 116        7PZ        -0.00000   0.00000  -0.00000   0.00000  -0.00000
 117        8PX        -0.00000  -0.00000  -0.00000   0.00000  -0.00000
 118        8PY        -0.00000  -0.00000  -0.00000  -0.00000   0.00000
 119        8PZ         0.00000  -0.00000   0.00000  -0.00000   0.00000
 120        9PX        -0.00000  -0.00000  -0.00000   0.00000  -0.00000
 121        9PY        -0.00001  -0.00000  -0.00000  -0.00000   0.00000
 122        9PZ         0.00000  -0.00000   0.00000  -0.00000   0.00000
 123       10PX        -0.00003  -0.00000  -0.00000   0.00000  -0.00000
 124       10PY        -0.00014  -0.00000  -0.00000  -0.00000   0.00000
 125       10PZ         0.00000  -0.00000   0.00000  -0.00000  -0.00000
 126       11PX        -0.00017  -0.00000  -0.00000   0.00000  -0.00000
 127       11PY        -0.00026  -0.00000  -0.00001   0.00000  -0.00001
 128       11PZ         0.00001  -0.00000   0.00000  -0.00000  -0.00001
                          41        42        43        44        45
  41        2S          0.00000
  42        2PX         0.00000   0.00000
  43        2PY         0.00000   0.00000   0.00000
  44        2PZ         0.00000   0.00000   0.00000   0.00000
  45        3S          0.00000   0.00000   0.00000   0.00000   0.00000
  46        3PX         0.00000   0.00000   0.00000   0.00000   0.00000
  47        3PY         0.00000   0.00000   0.00000   0.00000   0.00000
  48        3PZ         0.00000   0.00000   0.00000   0.00000   0.00000
  49        4S          0.00000   0.00000   0.00000   0.00000   0.00000
  50        4PX         0.00000   0.00000   0.00000   0.00000   0.00000
  51        4PY         0.00000   0.00000   0.00000   0.00000   0.00000
  52        4PZ         0.00000   0.00000   0.00000   0.00000   0.00000
  53 6   P  1S         -0.00000   0.00000   0.00000   0.00000  -0.00000
  54        2S         -0.00000   0.00000   0.00000   0.00000  -0.00000
  55        3S          0.00000  -0.00000  -0.00000  -0.00000   0.00000
  56        4S         -0.00000  -0.00000  -0.00000  -0.00000   0.00003
  57        5S          0.00006   0.00023   0.00164   0.00000  -0.00228
  58        6S          0.00127  -0.00002  -0.00005  -0.00000  -0.01969
  59        7PX        -0.00000   0.00000  -0.00000  -0.00000  -0.00000
  60        7PY        -0.00000  -0.00000  -0.00000  -0.00000  -0.00000
  61        7PZ        -0.00000   0.00000   0.00000  -0.00000  -0.00000
  62        8PX         0.00000   0.00000  -0.00000  -0.00000  -0.00001
  63        8PY         0.00000  -0.00000  -0.00000  -0.00000  -0.00005
  64        8PZ         0.00000  -0.00000   0.00000  -0.00000  -0.00000
  65        9PX        -0.00000  -0.00000   0.00011   0.00000   0.00014
  66        9PY        -0.00002   0.00013   0.00079  -0.00000   0.00132
  67        9PZ         0.00000   0.00000  -0.00000   0.00001  -0.00000
  68       10PX        -0.00003   0.00028   0.00079   0.00000   0.00072
  69       10PY         0.00051   0.00129   0.00512   0.00000  -0.00790
  70       10PZ        -0.00000  -0.00000  -0.00000   0.00080   0.00000
  71       11PX        -0.00004   0.00067  -0.00001   0.00000   0.00114
  72       11PY         0.00071   0.00002  -0.00016  -0.00000  -0.00843
  73       11PZ        -0.00000   0.00000  -0.00000   0.00053   0.00001
  74 7   O  1S         -0.00000   0.00000   0.00000   0.00000  -0.00000
  75        2S          0.00000  -0.00000  -0.00000  -0.00000  -0.00000
  76        2PX         0.00000  -0.00000   0.00000  -0.00000   0.00000
  77        2PY        -0.00000   0.00000  -0.00000  -0.00000  -0.00000
  78        2PZ        -0.00000  -0.00000  -0.00000  -0.00000  -0.00000
  79        3S         -0.00000  -0.00000  -0.00000  -0.00000   0.00000
  80        3PX        -0.00000  -0.00000   0.00000  -0.00000   0.00000
  81        3PY         0.00000   0.00000  -0.00000  -0.00000  -0.00000
  82        3PZ         0.00000  -0.00000  -0.00000  -0.00000  -0.00000
  83        4S          0.00000  -0.00000   0.00001  -0.00001  -0.00005
  84        4PX        -0.00000  -0.00000   0.00000  -0.00000  -0.00000
  85        4PY         0.00001   0.00000  -0.00008  -0.00004  -0.00034
  86        4PZ         0.00000  -0.00000  -0.00002  -0.00001  -0.00012
  87 8   Cl 1S          0.00000   0.00000   0.00000   0.00000   0.00000
  88        2S          0.00000   0.00000   0.00000   0.00000   0.00000
  89        3S          0.00000   0.00000   0.00000   0.00000  -0.00000
  90        4S         -0.00000   0.00000   0.00000  -0.00000  -0.00000
  91        5S         -0.00000  -0.00000  -0.00000  -0.00000   0.00000
  92        6S         -0.00000  -0.00003   0.00000   0.00000   0.00014
  93        7PX         0.00000   0.00000   0.00000   0.00000  -0.00000
  94        7PY         0.00000   0.00000   0.00000   0.00000   0.00000
  95        7PZ         0.00000  -0.00000  -0.00000   0.00000   0.00000
  96        8PX        -0.00000  -0.00000  -0.00000  -0.00000   0.00000
  97        8PY        -0.00000  -0.00000  -0.00000  -0.00000  -0.00000
  98        8PZ        -0.00000   0.00000   0.00000  -0.00000  -0.00000
  99        9PX        -0.00000  -0.00000  -0.00000  -0.00000   0.00000
 100        9PY        -0.00000  -0.00000  -0.00000  -0.00000  -0.00000
 101        9PZ        -0.00000  -0.00000   0.00000  -0.00000  -0.00000
 102       10PX        -0.00000  -0.00000  -0.00000  -0.00000   0.00001
 103       10PY         0.00000  -0.00000  -0.00000  -0.00000  -0.00000
 104       10PZ         0.00000   0.00000   0.00000  -0.00000  -0.00000
 105       11PX        -0.00004  -0.00027  -0.00008  -0.00000   0.00098
 106       11PY         0.00001  -0.00004  -0.00002  -0.00000  -0.00007
 107       11PZ         0.00000  -0.00000   0.00000  -0.00004  -0.00000
 108 9   Cl 1S          0.00000   0.00000   0.00000   0.00000   0.00000
 109        2S          0.00000   0.00000   0.00000   0.00000   0.00000
 110        3S          0.00000   0.00000   0.00000   0.00000  -0.00000
 111        4S         -0.00000   0.00000   0.00000   0.00000  -0.00000
 112        5S         -0.00000  -0.00000  -0.00000  -0.00000   0.00000
 113        6S         -0.00000  -0.00000  -0.00002  -0.00002   0.00014
 114        7PX        -0.00000   0.00000   0.00000   0.00000  -0.00000
 115        7PY         0.00000  -0.00000   0.00000   0.00000   0.00000
 116        7PZ         0.00000   0.00000   0.00000   0.00000  -0.00000
 117        8PX         0.00000  -0.00000  -0.00000  -0.00000   0.00000
 118        8PY        -0.00000   0.00000  -0.00000  -0.00000   0.00000
 119        8PZ        -0.00000  -0.00000  -0.00000  -0.00000   0.00000
 120        9PX         0.00000  -0.00000  -0.00000  -0.00000   0.00000
 121        9PY        -0.00000   0.00000  -0.00000  -0.00000  -0.00000
 122        9PZ        -0.00000  -0.00000  -0.00000  -0.00000   0.00000
 123       10PX        -0.00000  -0.00000  -0.00000  -0.00000   0.00000
 124       10PY         0.00000   0.00000  -0.00000  -0.00000   0.00000
 125       10PZ        -0.00000  -0.00000  -0.00000  -0.00000   0.00000
 126       11PX        -0.00000  -0.00003  -0.00000  -0.00000   0.00004
 127       11PY        -0.00001   0.00000  -0.00017  -0.00010   0.00057
 128       11PZ        -0.00001  -0.00000  -0.00011  -0.00004   0.00029
                          46        47        48        49        50
  46        3PX         0.00000
  47        3PY         0.00000   0.00000
  48        3PZ         0.00000   0.00000   0.00000
  49        4S          0.00000   0.00000   0.00000   0.00000
  50        4PX         0.00000   0.00000   0.00000   0.00000   0.00000
  51        4PY         0.00000   0.00000   0.00000   0.00000   0.00000
  52        4PZ         0.00000   0.00000   0.00000   0.00000   0.00000
  53 6   P  1S          0.00000   0.00000   0.00000  -0.00001   0.00000
  54        2S          0.00000   0.00000   0.00000  -0.00007   0.00004
  55        3S         -0.00001  -0.00004  -0.00000   0.00064  -0.00030
  56        4S         -0.00006  -0.00048  -0.00000   0.00273  -0.00107
  57        5S          0.00180   0.01369   0.00000  -0.01943   0.00594
  58        6S         -0.00016   0.00007  -0.00000  -0.07368  -0.00251
  59        7PX         0.00000  -0.00000  -0.00000  -0.00000  -0.00000
  60        7PY        -0.00000  -0.00001  -0.00000  -0.00000  -0.00007
  61        7PZ         0.00000   0.00000  -0.00000  -0.00000  -0.00000
  62        8PX         0.00000  -0.00008  -0.00000  -0.00006  -0.00005
  63        8PY        -0.00010  -0.00057   0.00000  -0.00018  -0.00086
  64        8PZ        -0.00000   0.00000  -0.00001  -0.00000  -0.00000
  65        9PX         0.00000   0.00138   0.00000   0.00050  -0.00019
  66        9PY         0.00150   0.00911  -0.00000   0.00394   0.00452
  67        9PZ         0.00000  -0.00000   0.00015   0.00000   0.00000
  68       10PX         0.00231   0.00473  -0.00000  -0.00298   0.00773
  69       10PY         0.00725   0.02784   0.00000  -0.05585   0.01055
  70       10PZ        -0.00000  -0.00001   0.00554   0.00001  -0.00000
  71       11PX         0.00430  -0.00005   0.00000  -0.00296   0.01646
  72       11PY         0.00013  -0.00077  -0.00000  -0.05613  -0.00132
  73       11PZ         0.00000  -0.00000   0.00328   0.00001   0.00000
  74 7   O  1S          0.00000   0.00000   0.00000  -0.00000   0.00000
  75        2S          0.00000   0.00000   0.00000  -0.00000   0.00000
  76        2PX        -0.00000   0.00000  -0.00000   0.00000  -0.00000
  77        2PY         0.00000  -0.00000  -0.00000  -0.00006   0.00000
  78        2PZ        -0.00000  -0.00000  -0.00000   0.00001  -0.00000
  79        3S         -0.00000  -0.00000  -0.00000   0.00005  -0.00000
  80        3PX        -0.00000   0.00000  -0.00000   0.00000  -0.00005
  81        3PY         0.00000  -0.00000  -0.00000  -0.00080   0.00000
  82        3PZ        -0.00000  -0.00000  -0.00000   0.00007  -0.00000
  83        4S         -0.00000   0.00007  -0.00014  -0.00056  -0.00000
  84        4PX        -0.00004   0.00000  -0.00000   0.00000  -0.00075
  85        4PY         0.00000  -0.00086  -0.00039  -0.00948   0.00001
  86        4PZ        -0.00000  -0.00020  -0.00009   0.00067  -0.00001
  87 8   Cl 1S         -0.00000  -0.00000   0.00000   0.00000  -0.00000
  88        2S         -0.00000  -0.00000   0.00000   0.00000  -0.00000
  89        3S          0.00000   0.00000  -0.00000  -0.00000   0.00000
  90        4S          0.00000   0.00000  -0.00000  -0.00000   0.00001
  91        5S         -0.00000  -0.00000  -0.00000   0.00002  -0.00006
  92        6S         -0.00034   0.00001   0.00000   0.00073  -0.00288
  93        7PX         0.00000   0.00000   0.00000   0.00000   0.00003
  94        7PY         0.00000   0.00000   0.00000   0.00000   0.00001
  95        7PZ        -0.00000  -0.00000   0.00000  -0.00000  -0.00000
  96        8PX        -0.00000  -0.00000  -0.00000  -0.00000  -0.00001
  97        8PY        -0.00000  -0.00000  -0.00000  -0.00000  -0.00000
  98        8PZ         0.00000   0.00000  -0.00000   0.00000   0.00000
  99        9PX        -0.00000  -0.00000  -0.00000  -0.00003  -0.00020
 100        9PY        -0.00000  -0.00000  -0.00000  -0.00004  -0.00009
 101        9PZ        -0.00000   0.00000  -0.00000   0.00000   0.00000
 102       10PX        -0.00011  -0.00003  -0.00000  -0.00076  -0.00424
 103       10PY        -0.00004  -0.00001  -0.00000  -0.00085  -0.00159
 104       10PZ         0.00000   0.00000  -0.00000   0.00000   0.00000
 105       11PX        -0.00178  -0.00056  -0.00000  -0.00087  -0.00839
 106       11PY        -0.00034  -0.00013  -0.00000  -0.00358  -0.00186
 107       11PZ        -0.00000   0.00000  -0.00023  -0.00000  -0.00000
 108 9   Cl 1S         -0.00000  -0.00000  -0.00000   0.00000  -0.00000
 109        2S         -0.00000  -0.00000  -0.00000   0.00000  -0.00000
 110        3S          0.00000   0.00000   0.00000  -0.00000   0.00000
 111        4S          0.00000   0.00000   0.00000  -0.00000   0.00000
 112        5S         -0.00000  -0.00000  -0.00000   0.00002  -0.00000
 113        6S         -0.00001  -0.00016  -0.00015   0.00073  -0.00007
 114        7PX         0.00000   0.00000   0.00000  -0.00000   0.00000
 115        7PY        -0.00000   0.00000   0.00000   0.00001  -0.00000
 116        7PZ         0.00000   0.00000   0.00000   0.00000   0.00000
 117        8PX        -0.00000  -0.00000  -0.00000   0.00000  -0.00000
 118        8PY         0.00000  -0.00000  -0.00000  -0.00000   0.00000
 119        8PZ        -0.00000  -0.00000  -0.00000  -0.00000  -0.00000
 120        9PX        -0.00000  -0.00000  -0.00000   0.00000  -0.00001
 121        9PY         0.00000  -0.00000  -0.00000  -0.00007   0.00000
 122        9PZ        -0.00000  -0.00000  -0.00000  -0.00000  -0.00000
 123       10PX        -0.00000  -0.00000  -0.00000   0.00002  -0.00012
 124       10PY        -0.00000  -0.00008  -0.00005  -0.00149   0.00004
 125       10PZ        -0.00000  -0.00004  -0.00002  -0.00013  -0.00003
 126       11PX        -0.00017  -0.00001  -0.00001   0.00013  -0.00134
 127       11PY         0.00003  -0.00116  -0.00072  -0.00497   0.00026
 128       11PZ        -0.00003  -0.00072  -0.00025   0.00038  -0.00015
                          51        52        53        54        55
  51        4PY         0.00000
  52        4PZ         0.00000   0.00000
  53 6   P  1S          0.00002   0.00000   0.00000
  54        2S          0.00020   0.00000   0.00000   0.00000
  55        3S         -0.00160  -0.00000   0.00000   0.00000   0.00000
  56        4S         -0.00641  -0.00000   0.00000   0.00000   0.00000
  57        5S          0.03560   0.00000   0.00000   0.00000   0.00000
  58        6S         -0.01566  -0.00000   0.00000   0.00000   0.00000
  59        7PX        -0.00005  -0.00000   0.00000   0.00000   0.00000
  60        7PY        -0.00033  -0.00000   0.00000   0.00000   0.00000
  61        7PZ         0.00000  -0.00002   0.00000   0.00000   0.00000
  62        8PX        -0.00066  -0.00000   0.00000   0.00000   0.00000
  63        8PY        -0.00403  -0.00000   0.00000   0.00000   0.00000
  64        8PZ         0.00000  -0.00019   0.00000   0.00000   0.00000
  65        9PX         0.00386   0.00000   0.00000   0.00000   0.00000
  66        9PY         0.02200   0.00000   0.00000   0.00000   0.00000
  67        9PZ        -0.00000   0.00029   0.00000   0.00000   0.00000
  68       10PX         0.00523   0.00000   0.00000   0.00000   0.00000
  69       10PY         0.02925   0.00000   0.00000   0.00000   0.00000
  70       10PZ        -0.00001   0.01261   0.00000   0.00000   0.00000
  71       11PX        -0.00164   0.00000   0.00000   0.00000   0.00000
  72       11PY        -0.00011  -0.00000   0.00000   0.00000   0.00000
  73       11PZ        -0.00000   0.01156   0.00000   0.00000   0.00000
  74 7   O  1S         -0.00000   0.00000   0.00000   0.00000  -0.00000
  75        2S         -0.00000   0.00000  -0.00000  -0.00000   0.00000
  76        2PX         0.00000  -0.00000   0.00000   0.00000  -0.00000
  77        2PY        -0.00017  -0.00003   0.00000   0.00000  -0.00000
  78        2PZ        -0.00002  -0.00000   0.00000   0.00000  -0.00000
  79        3S          0.00002  -0.00001  -0.00000  -0.00000   0.00000
  80        3PX         0.00000  -0.00000   0.00000   0.00000  -0.00001
  81        3PY        -0.00171  -0.00028   0.00000   0.00000  -0.00001
  82        3PZ        -0.00017  -0.00003   0.00000   0.00000  -0.00004
  83        4S          0.00094  -0.00144  -0.00001  -0.00007   0.00061
  84        4PX         0.00001  -0.00000   0.00000   0.00004  -0.00034
  85        4PY        -0.01154  -0.00298   0.00001   0.00008  -0.00062
  86        4PZ        -0.00061  -0.00042   0.00003   0.00025  -0.00200
  87 8   Cl 1S          0.00000  -0.00000   0.00000   0.00000   0.00000
  88        2S          0.00000  -0.00000   0.00000   0.00000   0.00000
  89        3S         -0.00000   0.00000   0.00000   0.00000  -0.00000
  90        4S          0.00000   0.00000   0.00000   0.00000  -0.00000
  91        5S         -0.00001  -0.00000  -0.00000  -0.00000   0.00000
  92        6S         -0.00001   0.00000  -0.00001  -0.00009   0.00078
  93        7PX         0.00001   0.00000  -0.00000  -0.00000   0.00000
  94        7PY         0.00001   0.00000  -0.00000  -0.00000   0.00000
  95        7PZ        -0.00000   0.00000   0.00000   0.00000  -0.00000
  96        8PX        -0.00000  -0.00000   0.00000   0.00000  -0.00000
  97        8PY        -0.00000  -0.00000   0.00000   0.00000  -0.00000
  98        8PZ         0.00000  -0.00000  -0.00000  -0.00000   0.00000
  99        9PX        -0.00010  -0.00000   0.00000   0.00000  -0.00000
 100        9PY        -0.00006  -0.00000   0.00000   0.00000  -0.00000
 101        9PZ         0.00000  -0.00001  -0.00000  -0.00000   0.00000
 102       10PX        -0.00171  -0.00000   0.00000   0.00004  -0.00033
 103       10PY        -0.00079  -0.00000   0.00000   0.00000  -0.00000
 104       10PZ         0.00000  -0.00027  -0.00000  -0.00000   0.00000
 105       11PX        -0.00353  -0.00000  -0.00000  -0.00004   0.00035
 106       11PY        -0.00094  -0.00000   0.00000   0.00000  -0.00000
 107       11PZ         0.00000  -0.00238   0.00000   0.00000  -0.00000
 108 9   Cl 1S         -0.00000  -0.00000   0.00000   0.00000   0.00000
 109        2S         -0.00000  -0.00000   0.00000   0.00000   0.00000
 110        3S          0.00000   0.00000   0.00000   0.00000  -0.00000
 111        4S          0.00000   0.00000   0.00000   0.00000  -0.00000
 112        5S         -0.00003  -0.00004  -0.00000  -0.00000   0.00000
 113        6S         -0.00153  -0.00129  -0.00001  -0.00009   0.00078
 114        7PX        -0.00000   0.00000  -0.00000  -0.00000   0.00000
 115        7PY         0.00003   0.00001  -0.00000  -0.00000   0.00000
 116        7PZ         0.00001   0.00000  -0.00000  -0.00000   0.00000
 117        8PX         0.00000  -0.00000   0.00000   0.00000  -0.00000
 118        8PY        -0.00001  -0.00000   0.00000   0.00000  -0.00000
 119        8PZ        -0.00000  -0.00000   0.00000   0.00000  -0.00000
 120        9PX         0.00000  -0.00000   0.00000   0.00000  -0.00000
 121        9PY        -0.00026  -0.00010   0.00000   0.00000  -0.00000
 122        9PZ        -0.00008  -0.00002   0.00000   0.00000  -0.00000
 123       10PX         0.00002  -0.00005   0.00000   0.00000  -0.00004
 124       10PY        -0.00440  -0.00189   0.00000   0.00001  -0.00008
 125       10PZ        -0.00170  -0.00047   0.00000   0.00002  -0.00021
 126       11PX         0.00004  -0.00015  -0.00000  -0.00002   0.00011
 127       11PY        -0.00761  -0.00361   0.00000   0.00000  -0.00000
 128       11PZ        -0.00383  -0.00069  -0.00000  -0.00003   0.00024
                          56        57        58        59        60
  56        4S          0.00000
  57        5S          0.00000   0.00000
  58        6S          0.00000   0.00000   0.00000
  59        7PX         0.00000   0.00000   0.00000   0.00000
  60        7PY         0.00000   0.00000   0.00000   0.00000   0.00000
  61        7PZ         0.00000   0.00000   0.00000   0.00000   0.00000
  62        8PX         0.00000   0.00000   0.00000   0.00000   0.00000
  63        8PY         0.00000   0.00000   0.00000   0.00000   0.00000
  64        8PZ         0.00000   0.00000   0.00000   0.00000   0.00000
  65        9PX         0.00000   0.00000   0.00000   0.00000   0.00000
  66        9PY         0.00000   0.00000   0.00000   0.00000   0.00000
  67        9PZ         0.00000   0.00000   0.00000   0.00000   0.00000
  68       10PX         0.00000   0.00000   0.00000   0.00000   0.00000
  69       10PY         0.00000   0.00000   0.00000   0.00000   0.00000
  70       10PZ         0.00000   0.00000   0.00000   0.00000   0.00000
  71       11PX         0.00000   0.00000   0.00000   0.00000   0.00000
  72       11PY         0.00000   0.00000   0.00000   0.00000   0.00000
  73       11PZ         0.00000   0.00000   0.00000   0.00000   0.00000
  74 7   O  1S         -0.00000   0.00006   0.00095   0.00000   0.00000
  75        2S         -0.00000   0.00010   0.00155  -0.00000  -0.00000
  76        2PX        -0.00000   0.00032   0.00010   0.00000  -0.00000
  77        2PY        -0.00000   0.00053   0.00077  -0.00000   0.00000
  78        2PZ        -0.00000   0.00182   0.00118  -0.00000  -0.00000
  79        3S          0.00005  -0.00386  -0.02675  -0.00000  -0.00000
  80        3PX        -0.00009   0.00260   0.00071   0.00000  -0.00000
  81        3PY        -0.00016   0.00434   0.00479  -0.00000   0.00000
  82        3PZ        -0.00051   0.01475   0.00760  -0.00000  -0.00000
  83        4S          0.00256  -0.02106  -0.06587  -0.00000   0.00002
  84        4PX        -0.00133   0.00754   0.00035  -0.00002  -0.00002
  85        4PY        -0.00250   0.01179   0.01311  -0.00002   0.00000
  86        4PZ        -0.00783   0.04205   0.01446  -0.00006  -0.00011
  87 8   Cl 1S          0.00000  -0.00000  -0.00001   0.00000   0.00000
  88        2S          0.00000  -0.00000  -0.00014   0.00000   0.00000
  89        3S         -0.00000   0.00003   0.00103   0.00000  -0.00000
  90        4S         -0.00000   0.00011   0.00324   0.00000  -0.00000
  91        5S          0.00002  -0.00148  -0.01267  -0.00000   0.00000
  92        6S          0.00303  -0.02198  -0.05009   0.00002   0.00000
  93        7PX         0.00000  -0.00028  -0.00118   0.00000  -0.00000
  94        7PY         0.00000  -0.00000  -0.00000   0.00000   0.00000
  95        7PZ        -0.00000   0.00000  -0.00000  -0.00000  -0.00000
  96        8PX        -0.00000   0.00007   0.00026  -0.00000   0.00000
  97        8PY        -0.00000   0.00000   0.00000  -0.00000  -0.00000
  98        8PZ         0.00000  -0.00000   0.00000   0.00000   0.00000
  99        9PX        -0.00001   0.00172   0.00514  -0.00000   0.00000
 100        9PY        -0.00000   0.00000   0.00000  -0.00000  -0.00000
 101        9PZ         0.00000  -0.00000   0.00000   0.00000   0.00000
 102       10PX        -0.00183   0.01733   0.03423  -0.00014   0.00000
 103       10PY        -0.00000   0.00000   0.00001   0.00000  -0.00000
 104       10PZ         0.00000  -0.00000   0.00000   0.00000   0.00000
 105       11PX         0.00094  -0.00566   0.01031  -0.00010   0.00000
 106       11PY        -0.00000   0.00001   0.00002  -0.00000  -0.00001
 107       11PZ        -0.00000   0.00000   0.00001   0.00000   0.00000
 108 9   Cl 1S          0.00000  -0.00000  -0.00001   0.00000   0.00000
 109        2S          0.00000  -0.00000  -0.00014   0.00000   0.00000
 110        3S         -0.00000   0.00003   0.00103   0.00000   0.00000
 111        4S         -0.00000   0.00011   0.00324   0.00000   0.00000
 112        5S          0.00002  -0.00148  -0.01267  -0.00000  -0.00000
 113        6S          0.00303  -0.02198  -0.05007  -0.00000   0.00001
 114        7PX         0.00000  -0.00003  -0.00007  -0.00000   0.00000
 115        7PY         0.00000  -0.00007  -0.00036   0.00000   0.00000
 116        7PZ         0.00000  -0.00018  -0.00074   0.00000   0.00000
 117        8PX        -0.00000   0.00001   0.00002   0.00000  -0.00000
 118        8PY        -0.00000   0.00002   0.00008  -0.00000  -0.00000
 119        8PZ        -0.00000   0.00005   0.00016  -0.00000  -0.00000
 120        9PX        -0.00000   0.00020   0.00030   0.00000  -0.00000
 121        9PY        -0.00000   0.00044   0.00164  -0.00000  -0.00000
 122        9PZ        -0.00001   0.00108   0.00320  -0.00000  -0.00000
 123       10PX        -0.00020   0.00198   0.00194   0.00000  -0.00000
 124       10PY        -0.00044   0.00406   0.01046  -0.00000  -0.00000
 125       10PZ        -0.00119   0.01129   0.02186  -0.00001  -0.00002
 126       11PX         0.00045  -0.00217  -0.00215  -0.00000  -0.00000
 127       11PY        -0.00008  -0.00017   0.00593  -0.00000  -0.00000
 128       11PZ         0.00057  -0.00331   0.00656  -0.00001  -0.00002
                          61        62        63        64        65
  61        7PZ         0.00000
  62        8PX         0.00000   0.00000
  63        8PY         0.00000   0.00000   0.00000
  64        8PZ         0.00000   0.00000   0.00000   0.00000
  65        9PX         0.00000   0.00000   0.00000   0.00000   0.00000
  66        9PY         0.00000   0.00000   0.00000   0.00000   0.00000
  67        9PZ         0.00000   0.00000   0.00000   0.00000   0.00000
  68       10PX         0.00000   0.00000   0.00000   0.00000   0.00000
  69       10PY         0.00000   0.00000   0.00000   0.00000   0.00000
  70       10PZ         0.00000   0.00000   0.00000   0.00000   0.00000
  71       11PX         0.00000   0.00000   0.00000   0.00000   0.00000
  72       11PY         0.00000   0.00000   0.00000   0.00000   0.00000
  73       11PZ         0.00000   0.00000   0.00000   0.00000   0.00000
  74 7   O  1S          0.00000   0.00000   0.00000   0.00000  -0.00000
  75        2S         -0.00000   0.00000   0.00000   0.00000  -0.00000
  76        2PX        -0.00000   0.00000  -0.00000  -0.00000  -0.00001
  77        2PY        -0.00000  -0.00000   0.00000  -0.00000   0.00003
  78        2PZ        -0.00000  -0.00000  -0.00000  -0.00000   0.00010
  79        3S         -0.00000  -0.00001  -0.00001  -0.00003   0.00012
  80        3PX        -0.00000   0.00001  -0.00003  -0.00009   0.00003
  81        3PY        -0.00000  -0.00003   0.00001  -0.00018   0.00039
  82        3PZ        -0.00001  -0.00009  -0.00018  -0.00024   0.00125
  83        4S          0.00002  -0.00002   0.00021   0.00014   0.00026
  84        4PX        -0.00006  -0.00021  -0.00021  -0.00068   0.00089
  85        4PY        -0.00012  -0.00024   0.00002  -0.00140   0.00108
  86        4PZ        -0.00012  -0.00071  -0.00127  -0.00138   0.00338
  87 8   Cl 1S          0.00000  -0.00000   0.00000   0.00000   0.00000
  88        2S          0.00000  -0.00000   0.00000   0.00000   0.00000
  89        3S         -0.00000   0.00000  -0.00000  -0.00000  -0.00000
  90        4S         -0.00000   0.00000  -0.00000  -0.00000  -0.00001
  91        5S         -0.00000  -0.00002   0.00000  -0.00000   0.00026
  92        6S          0.00000   0.00025   0.00000   0.00000  -0.00112
  93        7PX         0.00000   0.00000  -0.00000   0.00000  -0.00008
  94        7PY        -0.00000   0.00000   0.00000  -0.00000  -0.00000
  95        7PZ         0.00000  -0.00000  -0.00000   0.00000  -0.00000
  96        8PX        -0.00000  -0.00000   0.00000  -0.00000   0.00003
  97        8PY         0.00000  -0.00000  -0.00000   0.00000   0.00000
  98        8PZ        -0.00000   0.00000   0.00000  -0.00000   0.00000
  99        9PX        -0.00000  -0.00002   0.00000  -0.00000   0.00113
 100        9PY         0.00000  -0.00000  -0.00000   0.00000   0.00000
 101        9PZ        -0.00000  -0.00000   0.00000  -0.00000   0.00000
 102       10PX        -0.00000  -0.00215   0.00000  -0.00000   0.01657
 103       10PY         0.00000  -0.00000  -0.00004   0.00000   0.00000
 104       10PZ        -0.00000   0.00000   0.00000  -0.00003   0.00000
 105       11PX        -0.00000  -0.00124   0.00000  -0.00000   0.00665
 106       11PY        -0.00000  -0.00000  -0.00009  -0.00000   0.00000
 107       11PZ        -0.00001   0.00000   0.00000  -0.00010  -0.00000
 108 9   Cl 1S          0.00000  -0.00000  -0.00000  -0.00000   0.00000
 109        2S          0.00000  -0.00000  -0.00000  -0.00000   0.00000
 110        3S          0.00000   0.00000   0.00000   0.00000  -0.00000
 111        4S          0.00000   0.00000   0.00000   0.00000  -0.00000
 112        5S         -0.00000  -0.00000  -0.00000  -0.00001   0.00001
 113        6S          0.00002  -0.00002   0.00009   0.00018   0.00009
 114        7PX         0.00000  -0.00000   0.00000   0.00000  -0.00000
 115        7PY         0.00000   0.00000   0.00000   0.00000  -0.00000
 116        7PZ         0.00000   0.00000   0.00000   0.00000  -0.00000
 117        8PX        -0.00000   0.00000  -0.00000  -0.00000   0.00000
 118        8PY        -0.00000  -0.00000  -0.00000  -0.00000   0.00000
 119        8PZ        -0.00000  -0.00000  -0.00000  -0.00000   0.00000
 120        9PX        -0.00000   0.00000  -0.00000  -0.00000   0.00000
 121        9PY        -0.00000  -0.00000  -0.00000  -0.00000   0.00002
 122        9PZ        -0.00000  -0.00000  -0.00000  -0.00001   0.00006
 123       10PX        -0.00001   0.00000  -0.00007  -0.00022  -0.00005
 124       10PY        -0.00003  -0.00006  -0.00002  -0.00043   0.00041
 125       10PZ        -0.00006  -0.00017  -0.00034  -0.00091   0.00101
 126       11PX        -0.00002  -0.00001  -0.00004  -0.00017  -0.00050
 127       11PY        -0.00003  -0.00004   0.00001  -0.00038   0.00017
 128       11PZ        -0.00003  -0.00015  -0.00021  -0.00042   0.00055
                          66        67        68        69        70
  66        9PY         0.00000
  67        9PZ         0.00000   0.00000
  68       10PX         0.00000   0.00000   0.00000
  69       10PY         0.00000   0.00000   0.00000   0.00000
  70       10PZ         0.00000   0.00000   0.00000   0.00000   0.00000
  71       11PX         0.00000   0.00000   0.00000   0.00000   0.00000
  72       11PY         0.00000   0.00000   0.00000   0.00000   0.00000
  73       11PZ         0.00000   0.00000   0.00000   0.00000   0.00000
  74 7   O  1S         -0.00000  -0.00001   0.00003   0.00014   0.00026
  75        2S         -0.00000  -0.00001   0.00005   0.00024   0.00043
  76        2PX         0.00003   0.00010   0.00061   0.00064   0.00150
  77        2PY         0.00000   0.00022   0.00061  -0.00009   0.00312
  78        2PZ         0.00021   0.00033   0.00147   0.00325   0.00241
  79        3S          0.00022   0.00069  -0.00093  -0.00396  -0.00766
  80        3PX         0.00037   0.00122   0.00481   0.00361   0.00845
  81        3PY         0.00003   0.00261   0.00346   0.00061   0.01770
  82        3PZ         0.00249   0.00373   0.00829   0.01834   0.01258
  83        4S         -0.00079   0.00024  -0.00457  -0.02088  -0.03914
  84        4PX         0.00084   0.00315   0.01985   0.00611   0.01427
  85        4PY         0.00002   0.00668   0.00624   0.01143   0.02930
  86        4PZ         0.00575   0.00724   0.01439   0.02878   0.01060
  87 8   Cl 1S         -0.00000  -0.00000  -0.00000  -0.00000  -0.00000
  88        2S         -0.00000  -0.00000  -0.00002  -0.00000  -0.00000
  89        3S          0.00000   0.00000   0.00021   0.00000   0.00000
  90        4S         -0.00000  -0.00000   0.00052   0.00000   0.00000
  91        5S          0.00000   0.00000  -0.00276  -0.00000  -0.00000
  92        6S         -0.00000  -0.00000  -0.03268  -0.00001  -0.00001
  93        7PX         0.00000  -0.00000  -0.00351   0.00000  -0.00000
  94        7PY         0.00000   0.00000   0.00000  -0.00029  -0.00000
  95        7PZ         0.00000   0.00000   0.00000  -0.00000  -0.00026
  96        8PX        -0.00000   0.00000   0.00078  -0.00000   0.00000
  97        8PY        -0.00000  -0.00000  -0.00000   0.00007   0.00000
  98        8PZ        -0.00000  -0.00000  -0.00000   0.00000   0.00006
  99        9PX        -0.00000   0.00000   0.01615  -0.00000   0.00000
 100        9PY        -0.00001  -0.00000  -0.00000   0.00154   0.00000
 101        9PZ        -0.00000  -0.00001  -0.00000   0.00000   0.00141
 102       10PX        -0.00000   0.00000   0.08388  -0.00003   0.00001
 103       10PY        -0.00012  -0.00000  -0.00001   0.01282   0.00000
 104       10PZ        -0.00000  -0.00017  -0.00000   0.00000   0.01142
 105       11PX        -0.00000   0.00000   0.02399  -0.00002   0.00000
 106       11PY        -0.00050   0.00000  -0.00000   0.01286   0.00000
 107       11PZ        -0.00000  -0.00053  -0.00000   0.00000   0.01357
 108 9   Cl 1S          0.00000   0.00000   0.00000  -0.00000  -0.00000
 109        2S          0.00000   0.00000   0.00000  -0.00001  -0.00002
 110        3S         -0.00000  -0.00000  -0.00000   0.00006   0.00015
 111        4S         -0.00000  -0.00000  -0.00002   0.00017   0.00036
 112        5S          0.00005   0.00019  -0.00003  -0.00080  -0.00194
 113        6S         -0.00045  -0.00076  -0.00078  -0.00907  -0.02284
 114        7PX        -0.00000  -0.00001  -0.00003  -0.00012  -0.00052
 115        7PY        -0.00000  -0.00001  -0.00014   0.00008  -0.00095
 116        7PZ        -0.00001  -0.00004  -0.00042  -0.00073  -0.00124
 117        8PX         0.00000   0.00000   0.00001   0.00003   0.00012
 118        8PY         0.00000   0.00000   0.00003  -0.00002   0.00021
 119        8PZ         0.00000   0.00001   0.00009   0.00016   0.00027
 120        9PX         0.00003   0.00008   0.00026   0.00058   0.00245
 121        9PY         0.00005   0.00018   0.00063  -0.00027   0.00446
 122        9PZ         0.00014   0.00054   0.00191   0.00342   0.00566
 123       10PX         0.00049   0.00134   0.00325   0.00335   0.01410
 124       10PY         0.00043   0.00282   0.00405  -0.00002   0.02542
 125       10PZ         0.00228   0.00753   0.01172   0.01914   0.02708
 126       11PX         0.00021   0.00066   0.00511   0.00099   0.00684
 127       11PY        -0.00042   0.00165   0.00130   0.00481   0.01314
 128       11PZ         0.00080   0.00250   0.00617   0.00745   0.00461
                          71        72        73        74        75
  71       11PX         0.00000
  72       11PY         0.00000   0.00000
  73       11PZ         0.00000   0.00000   0.00000
  74 7   O  1S         -0.00002  -0.00000  -0.00006   0.00000
  75        2S         -0.00004  -0.00003  -0.00018   0.00000   0.00000
  76        2PX         0.00173   0.00009   0.00024   0.00000   0.00000
  77        2PY         0.00004   0.00154   0.00019   0.00000   0.00000
  78        2PZ         0.00019   0.00038   0.00007   0.00000   0.00000
  79        3S          0.00092   0.00118   0.00483   0.00000   0.00000
  80        3PX         0.01078   0.00053   0.00137   0.00000   0.00000
  81        3PY         0.00026   0.00981   0.00108   0.00000   0.00000
  82        3PZ         0.00109   0.00217   0.00075   0.00000   0.00000
  83        4S          0.00058   0.00278   0.00507   0.00000   0.00000
  84        4PX         0.04139   0.00179   0.00440   0.00000   0.00000
  85        4PY         0.00070   0.03729   0.00351   0.00000   0.00000
  86        4PZ         0.00331   0.00788   0.00604   0.00000   0.00000
  87 8   Cl 1S         -0.00003   0.00000  -0.00000   0.00000   0.00000
  88        2S         -0.00023   0.00000  -0.00000   0.00000   0.00000
  89        3S          0.00165  -0.00000   0.00000   0.00000   0.00000
  90        4S          0.00538  -0.00000   0.00000   0.00000  -0.00000
  91        5S         -0.01655   0.00000  -0.00000  -0.00000  -0.00000
  92        6S         -0.06119   0.00001   0.00000  -0.00000  -0.00000
  93        7PX         0.00042   0.00000  -0.00000   0.00000  -0.00000
  94        7PY        -0.00000  -0.00016  -0.00000  -0.00000   0.00000
  95        7PZ         0.00000   0.00000  -0.00012  -0.00000   0.00000
  96        8PX        -0.00010  -0.00000   0.00000  -0.00000   0.00000
  97        8PY         0.00000   0.00004   0.00000   0.00000  -0.00000
  98        8PZ        -0.00000  -0.00000   0.00003   0.00000  -0.00000
  99        9PX        -0.00154  -0.00000   0.00000  -0.00000   0.00000
 100        9PY         0.00000   0.00075   0.00000   0.00000  -0.00000
 101        9PZ        -0.00000  -0.00000   0.00053   0.00000  -0.00000
 102       10PX        -0.01287  -0.00001   0.00002  -0.00000  -0.00000
 103       10PY         0.00001   0.00529   0.00000   0.00000   0.00000
 104       10PZ        -0.00001  -0.00000   0.00376   0.00000   0.00000
 105       11PX        -0.00592  -0.00000   0.00001  -0.00003  -0.00005
 106       11PY         0.00001  -0.00012   0.00000  -0.00000  -0.00000
 107       11PZ        -0.00001   0.00000   0.00225   0.00000   0.00001
 108 9   Cl 1S         -0.00000  -0.00000  -0.00002   0.00000   0.00000
 109        2S         -0.00002  -0.00004  -0.00016   0.00000   0.00000
 110        3S          0.00017   0.00030   0.00117   0.00000   0.00000
 111        4S          0.00054   0.00100   0.00384   0.00000  -0.00000
 112        5S         -0.00129  -0.00275  -0.01251  -0.00000  -0.00000
 113        6S         -0.00842  -0.01212  -0.04064  -0.00000  -0.00000
 114        7PX        -0.00014   0.00001  -0.00001   0.00000  -0.00000
 115        7PY         0.00002  -0.00013  -0.00008   0.00000  -0.00000
 116        7PZ         0.00013   0.00023   0.00010  -0.00000   0.00000
 117        8PX         0.00003  -0.00000   0.00000  -0.00000   0.00000
 118        8PY        -0.00000   0.00003   0.00002  -0.00000   0.00000
 119        8PZ        -0.00003  -0.00005  -0.00002   0.00000  -0.00000
 120        9PX         0.00056  -0.00003   0.00009  -0.00000   0.00000
 121        9PY        -0.00006   0.00054   0.00041  -0.00000   0.00000
 122        9PZ        -0.00051  -0.00089  -0.00036   0.00000  -0.00000
 123       10PX         0.00529  -0.00051  -0.00024  -0.00000  -0.00000
 124       10PY        -0.00078   0.00508   0.00114  -0.00000  -0.00000
 125       10PZ        -0.00438  -0.00762  -0.00180   0.00000   0.00000
 126       11PX         0.00171  -0.00101  -0.00034  -0.00000  -0.00000
 127       11PY        -0.00122   0.00361   0.00062  -0.00000  -0.00000
 128       11PZ        -0.00394  -0.00631   0.00309  -0.00003  -0.00004
                          76        77        78        79        80
  76        2PX         0.00000
  77        2PY         0.00000   0.00000
  78        2PZ         0.00000   0.00000   0.00000
  79        3S          0.00000   0.00000   0.00000   0.00000
  80        3PX         0.00000   0.00000   0.00000   0.00000   0.00000
  81        3PY         0.00000   0.00000   0.00000   0.00000   0.00000
  82        3PZ         0.00000   0.00000   0.00000   0.00000   0.00000
  83        4S          0.00000   0.00000   0.00000   0.00000   0.00000
  84        4PX         0.00000   0.00000   0.00000   0.00000   0.00000
  85        4PY         0.00000   0.00000   0.00000   0.00000   0.00000
  86        4PZ         0.00000   0.00000   0.00000   0.00000   0.00000
  87 8   Cl 1S          0.00000   0.00000   0.00000   0.00000  -0.00000
  88        2S          0.00000   0.00000   0.00000   0.00000  -0.00000
  89        3S          0.00000   0.00000   0.00000  -0.00000   0.00000
  90        4S          0.00000   0.00000   0.00000  -0.00000   0.00000
  91        5S         -0.00000  -0.00000  -0.00000   0.00000  -0.00000
  92        6S         -0.00008   0.00000   0.00001   0.00012  -0.00075
  93        7PX         0.00000   0.00000   0.00000  -0.00000   0.00000
  94        7PY         0.00000  -0.00000   0.00000   0.00000   0.00000
  95        7PZ         0.00000   0.00000   0.00000   0.00000   0.00000
  96        8PX        -0.00000  -0.00000  -0.00000   0.00000  -0.00000
  97        8PY        -0.00000   0.00000  -0.00000  -0.00000  -0.00000
  98        8PZ        -0.00000  -0.00000  -0.00000  -0.00000  -0.00000
  99        9PX        -0.00000  -0.00000  -0.00000   0.00000  -0.00000
 100        9PY        -0.00000   0.00000  -0.00000  -0.00000  -0.00000
 101        9PZ        -0.00000  -0.00000  -0.00000  -0.00000  -0.00000
 102       10PX        -0.00000  -0.00000  -0.00000   0.00001  -0.00014
 103       10PY        -0.00000   0.00000  -0.00000  -0.00000  -0.00001
 104       10PZ        -0.00000  -0.00000  -0.00000  -0.00000  -0.00003
 105       11PX        -0.00046  -0.00002  -0.00005   0.00117  -0.00299
 106       11PY        -0.00002  -0.00003  -0.00004   0.00004  -0.00015
 107       11PZ        -0.00007  -0.00003   0.00000  -0.00006  -0.00051
 108 9   Cl 1S          0.00000   0.00000   0.00000   0.00000  -0.00000
 109        2S          0.00000   0.00000   0.00000   0.00000  -0.00000
 110        3S          0.00000   0.00000   0.00000  -0.00000   0.00000
 111        4S          0.00000   0.00000   0.00000  -0.00000   0.00000
 112        5S         -0.00000  -0.00000  -0.00000   0.00000  -0.00000
 113        6S         -0.00000  -0.00000  -0.00006   0.00012  -0.00002
 114        7PX         0.00000   0.00000   0.00000  -0.00000   0.00000
 115        7PY         0.00000   0.00000   0.00000  -0.00000   0.00000
 116        7PZ         0.00000   0.00000   0.00000  -0.00000   0.00000
 117        8PX        -0.00000  -0.00000  -0.00000   0.00000  -0.00000
 118        8PY        -0.00000  -0.00000  -0.00000   0.00000  -0.00000
 119        8PZ        -0.00000  -0.00000  -0.00000   0.00000  -0.00000
 120        9PX        -0.00000  -0.00000  -0.00000   0.00000  -0.00000
 121        9PY        -0.00000  -0.00000  -0.00000   0.00000  -0.00000
 122        9PZ        -0.00000  -0.00000  -0.00000   0.00000  -0.00000
 123       10PX        -0.00000  -0.00000  -0.00000   0.00000  -0.00000
 124       10PY        -0.00000   0.00000  -0.00000   0.00000  -0.00000
 125       10PZ        -0.00000  -0.00000  -0.00001   0.00000  -0.00000
 126       11PX        -0.00005  -0.00000  -0.00000   0.00002  -0.00033
 127       11PY        -0.00000  -0.00002  -0.00001   0.00003  -0.00001
 128       11PZ        -0.00000  -0.00001  -0.00063   0.00110  -0.00003
                          81        82        83        84        85
  81        3PY         0.00000
  82        3PZ         0.00000   0.00000
  83        4S          0.00000   0.00000   0.00000
  84        4PX         0.00000   0.00000   0.00000   0.00000
  85        4PY         0.00000   0.00000   0.00000   0.00000   0.00000
  86        4PZ         0.00000   0.00000   0.00000   0.00000   0.00000
  87 8   Cl 1S         -0.00000  -0.00000   0.00000  -0.00000   0.00000
  88        2S         -0.00000  -0.00000   0.00000  -0.00000   0.00000
  89        3S          0.00000   0.00000  -0.00000   0.00000  -0.00000
  90        4S          0.00000   0.00000  -0.00000   0.00001   0.00000
  91        5S         -0.00000  -0.00000   0.00001  -0.00013  -0.00000
  92        6S          0.00001   0.00007   0.00068  -0.00677   0.00004
  93        7PX         0.00000   0.00000   0.00000   0.00003   0.00000
  94        7PY        -0.00000   0.00000   0.00000   0.00000  -0.00000
  95        7PZ         0.00000   0.00000   0.00000   0.00001   0.00000
  96        8PX        -0.00000  -0.00000  -0.00000  -0.00001  -0.00000
  97        8PY         0.00000  -0.00000  -0.00000  -0.00000   0.00000
  98        8PZ        -0.00000  -0.00000  -0.00000  -0.00000  -0.00000
  99        9PX        -0.00000  -0.00000  -0.00000  -0.00022  -0.00001
 100        9PY         0.00000  -0.00000  -0.00001  -0.00002  -0.00000
 101        9PZ        -0.00000  -0.00000  -0.00003  -0.00007  -0.00002
 102       10PX        -0.00000  -0.00002  -0.00015  -0.00523  -0.00018
 103       10PY         0.00000  -0.00000  -0.00017  -0.00044  -0.00005
 104       10PZ        -0.00000  -0.00000  -0.00062  -0.00118  -0.00036
 105       11PX        -0.00014  -0.00036   0.00211  -0.01309  -0.00059
 106       11PY        -0.00025  -0.00028  -0.00076  -0.00086  -0.00195
 107       11PZ        -0.00022   0.00001  -0.00342  -0.00283  -0.00156
 108 9   Cl 1S         -0.00000  -0.00000   0.00000  -0.00000  -0.00000
 109        2S         -0.00000  -0.00000   0.00000  -0.00000  -0.00000
 110        3S          0.00000   0.00000  -0.00000   0.00000   0.00000
 111        4S          0.00000   0.00000  -0.00000   0.00000   0.00000
 112        5S         -0.00000  -0.00000   0.00001  -0.00000  -0.00000
 113        6S         -0.00002  -0.00063   0.00068  -0.00015  -0.00022
 114        7PX         0.00000   0.00000  -0.00000   0.00000   0.00000
 115        7PY         0.00000   0.00000  -0.00000   0.00000  -0.00000
 116        7PZ         0.00000   0.00000   0.00000   0.00000   0.00000
 117        8PX        -0.00000  -0.00000   0.00000  -0.00000  -0.00000
 118        8PY        -0.00000  -0.00000   0.00000  -0.00000   0.00000
 119        8PZ        -0.00000  -0.00000  -0.00000  -0.00000  -0.00000
 120        9PX        -0.00000  -0.00000   0.00000  -0.00001  -0.00000
 121        9PY        -0.00000  -0.00000   0.00000  -0.00000  -0.00000
 122        9PZ        -0.00000  -0.00000  -0.00004   0.00000  -0.00000
 123       10PX        -0.00000  -0.00000   0.00003  -0.00009  -0.00001
 124       10PY         0.00000  -0.00000   0.00004  -0.00001   0.00005
 125       10PZ        -0.00000  -0.00020  -0.00100  -0.00004  -0.00009
 126       11PX        -0.00000  -0.00003   0.00021  -0.00204  -0.00003
 127       11PY        -0.00012  -0.00006   0.00029  -0.00003  -0.00046
 128       11PZ        -0.00008  -0.00424  -0.00258  -0.00012  -0.00028
                          86        87        88        89        90
  86        4PZ         0.00000
  87 8   Cl 1S          0.00000   0.00000
  88        2S          0.00000   0.00000   0.00000
  89        3S         -0.00000   0.00000   0.00000   0.00000
  90        4S          0.00000   0.00000   0.00000   0.00000   0.00000
  91        5S         -0.00003   0.00000   0.00000   0.00000   0.00000
  92        6S          0.00075   0.00000   0.00000   0.00000   0.00000
  93        7PX         0.00001   0.00000   0.00000   0.00000   0.00000
  94        7PY         0.00000   0.00000   0.00000   0.00000   0.00000
  95        7PZ         0.00000   0.00000   0.00000   0.00000   0.00000
  96        8PX        -0.00000   0.00000   0.00000   0.00000   0.00000
  97        8PY        -0.00000   0.00000   0.00000   0.00000   0.00000
  98        8PZ        -0.00000   0.00000   0.00000   0.00000   0.00000
  99        9PX        -0.00005   0.00000   0.00000   0.00000   0.00000
 100        9PY        -0.00002   0.00000   0.00000   0.00000   0.00000
 101        9PZ        -0.00002   0.00000   0.00000   0.00000   0.00000
 102       10PX        -0.00061   0.00000   0.00000   0.00000   0.00000
 103       10PY        -0.00033   0.00000   0.00000   0.00000   0.00000
 104       10PZ        -0.00025   0.00000   0.00000   0.00000   0.00000
 105       11PX        -0.00129   0.00000   0.00000   0.00000   0.00000
 106       11PY        -0.00174   0.00000   0.00000   0.00000   0.00000
 107       11PZ        -0.00005   0.00000   0.00000   0.00000   0.00000
 108 9   Cl 1S         -0.00000   0.00000   0.00000   0.00000   0.00000
 109        2S         -0.00000   0.00000   0.00000   0.00000   0.00000
 110        3S          0.00000   0.00000   0.00000   0.00000   0.00000
 111        4S          0.00001   0.00000   0.00000   0.00000   0.00000
 112        5S         -0.00016   0.00000   0.00000  -0.00000  -0.00000
 113        6S         -0.00561   0.00000   0.00000  -0.00000  -0.00000
 114        7PX        -0.00000   0.00000   0.00000   0.00000  -0.00000
 115        7PY        -0.00000   0.00000   0.00000   0.00000   0.00000
 116        7PZ         0.00006   0.00000   0.00000   0.00000   0.00000
 117        8PX         0.00000   0.00000   0.00000   0.00000   0.00000
 118        8PY         0.00000   0.00000   0.00000   0.00000  -0.00000
 119        8PZ        -0.00002   0.00000   0.00000   0.00000  -0.00000
 120        9PX         0.00000  -0.00000  -0.00000   0.00000   0.00000
 121        9PY         0.00000  -0.00000  -0.00000   0.00000  -0.00000
 122        9PZ        -0.00045  -0.00000  -0.00000   0.00000  -0.00000
 123       10PX        -0.00001  -0.00000  -0.00000   0.00000   0.00000
 124       10PY        -0.00002  -0.00000  -0.00000   0.00000  -0.00000
 125       10PZ        -0.00842   0.00000   0.00000  -0.00000  -0.00000
 126       11PX        -0.00004   0.00000   0.00000  -0.00001  -0.00004
 127       11PY        -0.00011   0.00000   0.00000  -0.00000  -0.00001
 128       11PZ        -0.02085   0.00000   0.00000  -0.00000  -0.00002
                          91        92        93        94        95
  91        5S          0.00000
  92        6S          0.00000   0.00000
  93        7PX         0.00000   0.00000   0.00000
  94        7PY         0.00000   0.00000   0.00000   0.00000
  95        7PZ         0.00000   0.00000   0.00000   0.00000   0.00000
  96        8PX         0.00000   0.00000   0.00000   0.00000   0.00000
  97        8PY         0.00000   0.00000   0.00000   0.00000   0.00000
  98        8PZ         0.00000   0.00000   0.00000   0.00000   0.00000
  99        9PX         0.00000   0.00000   0.00000   0.00000   0.00000
 100        9PY         0.00000   0.00000   0.00000   0.00000   0.00000
 101        9PZ         0.00000   0.00000   0.00000   0.00000   0.00000
 102       10PX         0.00000   0.00000   0.00000   0.00000   0.00000
 103       10PY         0.00000   0.00000   0.00000   0.00000   0.00000
 104       10PZ         0.00000   0.00000   0.00000   0.00000   0.00000
 105       11PX         0.00000   0.00000   0.00000   0.00000   0.00000
 106       11PY         0.00000   0.00000   0.00000   0.00000   0.00000
 107       11PZ         0.00000   0.00000   0.00000   0.00000   0.00000
 108 9   Cl 1S          0.00000   0.00000   0.00000   0.00000   0.00000
 109        2S          0.00000   0.00000   0.00000   0.00000   0.00000
 110        3S         -0.00000  -0.00000   0.00000   0.00000   0.00000
 111        4S         -0.00000  -0.00000  -0.00000  -0.00000  -0.00000
 112        5S          0.00000   0.00005  -0.00000   0.00000   0.00000
 113        6S          0.00005   0.00016   0.00001   0.00000   0.00000
 114        7PX         0.00000   0.00001  -0.00000  -0.00000  -0.00000
 115        7PY        -0.00000   0.00000  -0.00000   0.00000  -0.00000
 116        7PZ        -0.00000   0.00000  -0.00000  -0.00000  -0.00000
 117        8PX        -0.00000  -0.00000   0.00000   0.00000   0.00000
 118        8PY         0.00000  -0.00000   0.00000  -0.00000   0.00000
 119        8PZ         0.00000  -0.00000   0.00000   0.00000   0.00000
 120        9PX        -0.00000  -0.00006   0.00000   0.00000   0.00000
 121        9PY         0.00000  -0.00001   0.00000  -0.00000   0.00000
 122        9PZ         0.00000  -0.00001   0.00000   0.00000   0.00000
 123       10PX        -0.00001  -0.00115   0.00000   0.00000   0.00000
 124       10PY         0.00000  -0.00014   0.00000  -0.00000   0.00000
 125       10PZ         0.00000  -0.00031   0.00000   0.00000   0.00000
 126       11PX         0.00037  -0.00212   0.00009   0.00000   0.00005
 127       11PY         0.00013  -0.00057   0.00002   0.00000   0.00001
 128       11PZ         0.00024  -0.00055   0.00005   0.00001   0.00001
                          96        97        98        99       100
  96        8PX         0.00000
  97        8PY         0.00000   0.00000
  98        8PZ         0.00000   0.00000   0.00000
  99        9PX         0.00000   0.00000   0.00000   0.00000
 100        9PY         0.00000   0.00000   0.00000   0.00000   0.00000
 101        9PZ         0.00000   0.00000   0.00000   0.00000   0.00000
 102       10PX         0.00000   0.00000   0.00000   0.00000   0.00000
 103       10PY         0.00000   0.00000   0.00000   0.00000   0.00000
 104       10PZ         0.00000   0.00000   0.00000   0.00000   0.00000
 105       11PX         0.00000   0.00000   0.00000   0.00000   0.00000
 106       11PY         0.00000   0.00000   0.00000   0.00000   0.00000
 107       11PZ         0.00000   0.00000   0.00000   0.00000   0.00000
 108 9   Cl 1S          0.00000   0.00000   0.00000  -0.00000  -0.00000
 109        2S          0.00000   0.00000   0.00000  -0.00000  -0.00000
 110        3S          0.00000   0.00000   0.00000   0.00000   0.00000
 111        4S          0.00000   0.00000   0.00000   0.00000   0.00000
 112        5S          0.00000  -0.00000  -0.00000   0.00000  -0.00000
 113        6S         -0.00000  -0.00000  -0.00000  -0.00005  -0.00001
 114        7PX         0.00000   0.00000   0.00000   0.00000   0.00000
 115        7PY         0.00000  -0.00000   0.00000   0.00000  -0.00000
 116        7PZ         0.00000   0.00000   0.00000   0.00000   0.00000
 117        8PX        -0.00000  -0.00000  -0.00000  -0.00000  -0.00000
 118        8PY        -0.00000   0.00000  -0.00000  -0.00000   0.00000
 119        8PZ        -0.00000  -0.00000  -0.00000  -0.00000  -0.00000
 120        9PX        -0.00000  -0.00000  -0.00000  -0.00000  -0.00000
 121        9PY        -0.00000   0.00000  -0.00000  -0.00000   0.00000
 122        9PZ        -0.00000  -0.00000  -0.00000  -0.00000  -0.00000
 123       10PX        -0.00000  -0.00000  -0.00000  -0.00001  -0.00000
 124       10PY        -0.00000   0.00000  -0.00000  -0.00000   0.00000
 125       10PZ        -0.00000  -0.00000  -0.00000  -0.00000  -0.00000
 126       11PX        -0.00002  -0.00000  -0.00001  -0.00036  -0.00003
 127       11PY        -0.00001  -0.00000  -0.00000  -0.00011  -0.00002
 128       11PZ        -0.00001  -0.00000  -0.00000  -0.00024  -0.00007
                         101       102       103       104       105
 101        9PZ         0.00000
 102       10PX         0.00000   0.00000
 103       10PY         0.00000   0.00000   0.00000
 104       10PZ         0.00000   0.00000   0.00000   0.00000
 105       11PX         0.00000   0.00000   0.00000   0.00000   0.00000
 106       11PY         0.00000   0.00000   0.00000   0.00000   0.00000
 107       11PZ         0.00000   0.00000   0.00000   0.00000   0.00000
 108 9   Cl 1S         -0.00000  -0.00000  -0.00000  -0.00000   0.00000
 109        2S         -0.00000  -0.00000  -0.00000  -0.00000   0.00000
 110        3S          0.00000   0.00000   0.00000   0.00000  -0.00001
 111        4S          0.00000   0.00000   0.00000   0.00000  -0.00006
 112        5S         -0.00000   0.00000  -0.00000  -0.00000   0.00062
 113        6S         -0.00003  -0.00100  -0.00012  -0.00048  -0.00221
 114        7PX         0.00000   0.00000   0.00000   0.00000   0.00011
 115        7PY         0.00000   0.00000  -0.00000   0.00000   0.00002
 116        7PZ         0.00000   0.00000   0.00000   0.00000   0.00004
 117        8PX        -0.00000  -0.00000  -0.00000  -0.00000  -0.00003
 118        8PY        -0.00000  -0.00000   0.00000  -0.00000  -0.00001
 119        8PZ        -0.00000  -0.00000  -0.00000  -0.00000  -0.00001
 120        9PX        -0.00000  -0.00001  -0.00000  -0.00000  -0.00051
 121        9PY        -0.00000  -0.00000   0.00000  -0.00000  -0.00011
 122        9PZ        -0.00000  -0.00000  -0.00000  -0.00000  -0.00019
 123       10PX        -0.00000  -0.00063  -0.00007  -0.00025  -0.00452
 124       10PY        -0.00000  -0.00010   0.00000  -0.00006  -0.00113
 125       10PZ        -0.00000  -0.00021  -0.00004  -0.00007  -0.00220
 126       11PX        -0.00027  -0.00479  -0.00022  -0.00245  -0.00531
 127       11PY        -0.00008  -0.00111  -0.00026  -0.00057  -0.00208
 128       11PZ        -0.00003  -0.00214  -0.00056  -0.00023  -0.00305
                         106       107       108       109       110
 106       11PY         0.00000
 107       11PZ         0.00000   0.00000
 108 9   Cl 1S          0.00000   0.00000   0.00000
 109        2S          0.00000   0.00000   0.00000   0.00000
 110        3S         -0.00000  -0.00000   0.00000   0.00000   0.00000
 111        4S         -0.00000  -0.00002   0.00000   0.00000   0.00000
 112        5S         -0.00001   0.00013   0.00000   0.00000   0.00000
 113        6S          0.00003  -0.00106   0.00000   0.00000   0.00000
 114        7PX         0.00001   0.00004   0.00000   0.00000   0.00000
 115        7PY         0.00000   0.00002   0.00000   0.00000   0.00000
 116        7PZ         0.00001   0.00000   0.00000   0.00000   0.00000
 117        8PX        -0.00000  -0.00001   0.00000   0.00000   0.00000
 118        8PY        -0.00000  -0.00000   0.00000   0.00000   0.00000
 119        8PZ        -0.00000  -0.00000   0.00000   0.00000   0.00000
 120        9PX        -0.00006  -0.00019   0.00000   0.00000   0.00000
 121        9PY        -0.00002  -0.00008   0.00000   0.00000   0.00000
 122        9PZ        -0.00004   0.00001   0.00000   0.00000   0.00000
 123       10PX        -0.00071  -0.00205   0.00000   0.00000   0.00000
 124       10PY        -0.00021  -0.00090   0.00000   0.00000   0.00000
 125       10PZ        -0.00041  -0.00020   0.00000   0.00000   0.00000
 126       11PX        -0.00018  -0.00348   0.00000   0.00000   0.00000
 127       11PY        -0.00176  -0.00177   0.00000   0.00000   0.00000
 128       11PZ        -0.00101  -0.00000   0.00000   0.00000   0.00000
                         111       112       113       114       115
 111        4S          0.00000
 112        5S          0.00000   0.00000
 113        6S          0.00000   0.00000   0.00000
 114        7PX         0.00000   0.00000   0.00000   0.00000
 115        7PY         0.00000   0.00000   0.00000   0.00000   0.00000
 116        7PZ         0.00000   0.00000   0.00000   0.00000   0.00000
 117        8PX         0.00000   0.00000   0.00000   0.00000   0.00000
 118        8PY         0.00000   0.00000   0.00000   0.00000   0.00000
 119        8PZ         0.00000   0.00000   0.00000   0.00000   0.00000
 120        9PX         0.00000   0.00000   0.00000   0.00000   0.00000
 121        9PY         0.00000   0.00000   0.00000   0.00000   0.00000
 122        9PZ         0.00000   0.00000   0.00000   0.00000   0.00000
 123       10PX         0.00000   0.00000   0.00000   0.00000   0.00000
 124       10PY         0.00000   0.00000   0.00000   0.00000   0.00000
 125       10PZ         0.00000   0.00000   0.00000   0.00000   0.00000
 126       11PX         0.00000   0.00000   0.00000   0.00000   0.00000
 127       11PY         0.00000   0.00000   0.00000   0.00000   0.00000
 128       11PZ         0.00000   0.00000   0.00000   0.00000   0.00000
                         116       117       118       119       120
 116        7PZ         0.00000
 117        8PX         0.00000   0.00000
 118        8PY         0.00000   0.00000   0.00000
 119        8PZ         0.00000   0.00000   0.00000   0.00000
 120        9PX         0.00000   0.00000   0.00000   0.00000   0.00000
 121        9PY         0.00000   0.00000   0.00000   0.00000   0.00000
 122        9PZ         0.00000   0.00000   0.00000   0.00000   0.00000
 123       10PX         0.00000   0.00000   0.00000   0.00000   0.00000
 124       10PY         0.00000   0.00000   0.00000   0.00000   0.00000
 125       10PZ         0.00000   0.00000   0.00000   0.00000   0.00000
 126       11PX         0.00000   0.00000   0.00000   0.00000   0.00000
 127       11PY         0.00000   0.00000   0.00000   0.00000   0.00000
 128       11PZ         0.00000   0.00000   0.00000   0.00000   0.00000
                         121       122       123       124       125
 121        9PY         0.00000
 122        9PZ         0.00000   0.00000
 123       10PX         0.00000   0.00000   0.00000
 124       10PY         0.00000   0.00000   0.00000   0.00000
 125       10PZ         0.00000   0.00000   0.00000   0.00000   0.00000
 126       11PX         0.00000   0.00000   0.00000   0.00000   0.00000
 127       11PY         0.00000   0.00000   0.00000   0.00000   0.00000
 128       11PZ         0.00000   0.00000   0.00000   0.00000   0.00000
                         126       127       128
 126       11PX         0.00000
 127       11PY         0.00000   0.00000
 128       11PZ         0.00000   0.00000   0.00000
     Bonding Gross orbital populations:
                           1
   1 1   Si 1S          0.00008
   2        2S          0.00069
   3        3S         -0.00691
   4        4S         -0.02914
   5        5S          0.24792
   6        6S          0.09673
   7        7PX        -0.00093
   8        7PY        -0.00085
   9        7PZ        -0.00082
  10        8PX        -0.01285
  11        8PY        -0.01178
  12        8PZ        -0.01141
  13        9PX         0.09040
  14        9PY         0.08076
  15        9PZ         0.08221
  16       10PX         0.21785
  17       10PY         0.20050
  18       10PZ         0.13719
  19       11PX         0.03714
  20       11PY         0.02070
  21       11PZ         0.01638
  22 2   H  1S          0.05694
  23        2S          0.20453
  24        3S          0.04015
  25        4PX         0.00187
  26        4PY         0.01098
  27        4PZ         0.00056
  28 3   H  1S          0.05369
  29        2S          0.17606
  30        3S          0.00461
  31        4PX         0.00182
  32        4PY         0.00307
  33        4PZ         0.00814
  34 4   H  1S          0.05369
  35        2S          0.17610
  36        3S          0.00465
  37        4PX         0.01156
  38        4PY         0.00075
  39        4PZ         0.00071
  40 5   O  1S          0.00183
  41        2S          0.00292
  42        2PX         0.00365
  43        2PY         0.00939
  44        2PZ         0.00566
  45        3S         -0.04194
  46        3PX         0.02287
  47        3PY         0.06215
  48        3PZ         0.03610
  49        4S         -0.24388
  50        4PX         0.03473
  51        4PY         0.04465
  52        4PZ         0.06021
  53 6   P  1S          0.00001
  54        2S          0.00006
  55        3S         -0.00054
  56        4S         -0.00475
  57        5S          0.04684
  58        6S         -0.22685
  59        7PX        -0.00041
  60        7PY        -0.00059
  61        7PZ        -0.00048
  62        8PX        -0.00577
  63        8PY        -0.00805
  64        8PZ        -0.00656
  65        9PX         0.03837
  66        9PY         0.05548
  67        9PZ         0.04243
  68       10PX         0.19084
  69       10PY         0.12481
  70       10PZ         0.17930
  71       11PX        -0.02972
  72       11PY        -0.02754
  73       11PZ        -0.00378
  74 7   O  1S          0.00127
  75        2S          0.00198
  76        2PX         0.00467
  77        2PY         0.00652
  78        2PZ         0.01060
  79        3S         -0.03203
  80        3PX         0.02921
  81        3PY         0.04064
  82        3PZ         0.06608
  83        4S         -0.14315
  84        4PX         0.06344
  85        4PY         0.08288
  86        4PZ         0.09133
  87 8   Cl 1S         -0.00004
  88        2S         -0.00040
  89        3S          0.00292
  90        4S          0.00929
  91        5S         -0.03316
  92        6S         -0.17221
  93        7PX        -0.00427
  94        7PY        -0.00038
  95        7PZ        -0.00031
  96        8PX         0.00096
  97        8PY         0.00009
  98        8PZ         0.00007
  99        9PX         0.02069
 100        9PY         0.00178
 101        9PZ         0.00147
 102       10PX         0.10764
 103       10PY         0.01092
 104       10PZ         0.00868
 105       11PX        -0.02370
 106       11PY        -0.01332
 107       11PZ        -0.00740
 108 9   Cl 1S         -0.00004
 109        2S         -0.00040
 110        3S          0.00292
 111        4S          0.00929
 112        5S         -0.03316
 113        6S         -0.17221
 114        7PX        -0.00075
 115        7PY        -0.00147
 116        7PZ        -0.00273
 117        8PX         0.00017
 118        8PY         0.00033
 119        8PZ         0.00061
 120        9PX         0.00368
 121        9PY         0.00706
 122        9PZ         0.01321
 123       10PX         0.02069
 124       10PY         0.03874
 125       10PZ         0.06778
 126       11PX        -0.01251
 127       11PY        -0.00423
 128       11PZ        -0.02770
          Bonding Condensed to atoms (all electrons):
               1          2          3          4          5          6
     1  Si   0.000000   0.369689   0.350393   0.350456   0.153888  -0.068111
     2  H    0.369689   0.000000  -0.023705  -0.023731  -0.006456  -0.001779
     3  H    0.350393  -0.023705   0.000000  -0.038817  -0.014827  -0.013264
     4  H    0.350456  -0.023731  -0.038817   0.000000  -0.014831  -0.013246
     5  O    0.153888  -0.006456  -0.014827  -0.014831   0.000000  -0.012894
     6  P   -0.068111  -0.001779  -0.013264  -0.013246  -0.012894   0.000000
     7  O    0.001074   0.000007  -0.000026  -0.000026  -0.031653   0.347808
     8  Cl  -0.001711   0.000504  -0.000469  -0.011889  -0.037456   0.062264
     9  Cl  -0.001826   0.000503  -0.011903  -0.000453  -0.037438   0.062320
               7          8          9
     1  Si   0.001074  -0.001711  -0.001826
     2  H    0.000007   0.000504   0.000503
     3  H   -0.000026  -0.000469  -0.011903
     4  H   -0.000026  -0.011889  -0.000453
     5  O   -0.031653  -0.037456  -0.037438
     6  P    0.347808   0.062264   0.062320
     7  O    0.000000  -0.046865  -0.046876
     8  Cl  -0.046865   0.000000  -0.055062
     9  Cl  -0.046876  -0.055062   0.000000
 Bonding Mulliken charges:
               1
     1  Si  12.846149
     2  H    0.684967
     3  H    0.752618
     4  H    0.752537
     5  O    8.001667
     6  P   14.636901
     7  O    7.776559
     8  Cl  17.090684
     9  Cl  17.090735
 Sum of Bonding Mulliken charges =  79.63282
 Bonding Mulliken charges with hydrogens summed into heavy atoms:
               1
     1  Si  15.036271
     5  O    8.001667
     6  P   14.636901
     7  O    7.776559
     8  Cl  17.090684
     9  Cl  17.090735
 GSVD:  LWork=      -17408 too small for GESVD, short by       83840 words or       83840 for optimal perf.
 Atomic Valencies and Mayer Atomic Bond Orders:
               1          2          3          4          5          6
     1  Si   3.278131   0.936344   0.884493   0.884555   0.569129  -0.012851
     2  H    0.936344   0.970137   0.008480   0.008489   0.005089   0.003317
     3  H    0.884493   0.008480   0.930057   0.018740   0.027206  -0.004729
     4  H    0.884555   0.008489   0.018740   0.930064   0.027163  -0.004744
     5  O    0.569129   0.005089   0.027206   0.027163   1.564793   0.757670
     6  P   -0.012851   0.003317  -0.004729  -0.004744   0.757670   3.861773
     7  O    0.003221   0.004702   0.001629   0.001628   0.037032   1.549321
     8  Cl   0.006677   0.001860  -0.000551  -0.005223   0.070758   0.786882
     9  Cl   0.006563   0.001855  -0.005211  -0.000545   0.070748   0.786907
               7          8          9
     1  Si   0.003221   0.006677   0.006563
     2  H    0.004702   0.001860   0.001855
     3  H    0.001629  -0.000551  -0.005211
     4  H    0.001628  -0.005223  -0.000545
     5  O    0.037032   0.070758   0.070748
     6  P    1.549321   0.786882   0.786907
     7  O    1.779917   0.091197   0.091187
     8  Cl   0.091197   1.014583   0.062982
     9  Cl   0.091187   0.062982   1.014485
 Lowdin Atomic Charges:
               1
     1  Si   0.932899
     2  H   -0.159904
     3  H   -0.174375
     4  H   -0.174364
     5  O   -0.657376
     6  P    0.970689
     7  O   -0.601756
     8  Cl  -0.067891
     9  Cl  -0.067921
 Sum of Lowdin charges  =  -0.00000
 Lowdin atomic charges with hydrogens summed into heavy atoms:
               1
     1  Si   0.424255
     2  H    0.000000
     3  H    0.000000
     4  H    0.000000
     5  O   -0.657376
     6  P    0.970689
     7  O   -0.601756
     8  Cl  -0.067891
     9  Cl  -0.067921
 Sum of Lowdin charges  =  -0.00000
 Dipole moment from Lowdin charges (Debye):
    X=    -2.6390    Y=    -2.1094    Z=    -5.5335  Tot=     6.4833
 Electronic spatial extent (au):  <R**2>=           3057.9527
 Charge=             -0.0000 electrons
 Dipole moment (field-independent basis, Debye):
    X=             -1.7159    Y=             -3.5247    Z=             -4.8363  Tot=              6.2256
 Quadrupole moment (field-independent basis, Debye-Ang):
   XX=            -61.8796   YY=            -75.7049   ZZ=            -69.7144
   XY=              2.2170   XZ=              5.2512   YZ=             -7.6835
 Traceless Quadrupole moment (field-independent basis, Debye-Ang):
   XX=              7.2201   YY=             -6.6053   ZZ=             -0.6147
   XY=              2.2170   XZ=              5.2512   YZ=             -7.6835
 Octapole moment (field-independent basis, Debye-Ang**2):
  XXX=            340.5065  YYY=           -374.2655  ZZZ=             37.9070  XYY=            120.8430
  XXY=           -114.1070  XXZ=             10.7659  XZZ=            117.9442  YZZ=           -131.7415
  YYZ=             -9.5435  XYZ=              6.1667
 Hexadecapole moment (field-independent basis, Debye-Ang**3):
 XXXX=          -1659.6188 YYYY=          -2030.5778 ZZZZ=           -498.9207 XXXY=            585.7721
 XXXZ=            -37.1936 YYYX=            610.0486 YYYZ=            -75.3039 ZZZX=            -27.9334
 ZZZY=            -20.4923 XXYY=           -598.6542 XXZZ=           -361.4963 YYZZ=           -448.4095
 XXYZ=             -1.8729 YYXZ=              9.9113 ZZXY=            218.9997
 N-N= 5.583436106921D+02 E-N=-5.162638266259D+03  KE= 1.700092443434D+03
 Orbital energies and kinetic energies (alpha):
                                 1                 2
   1         O              -101.619155        137.005455
   2         O              -101.619132        137.005454
   3         O               -77.288647        106.092655
   4         O               -66.188332         92.132816
   5         O               -19.214180         29.134708
   6         O               -19.127042         29.138136
   7         O                -9.534594         21.495085
   8         O                -9.534573         21.495078
   9         O                -7.300167         20.528873
  10         O                -7.300146         20.528868
  11         O                -7.288029         20.550715
  12         O                -7.288007         20.550717
  13         O                -7.287855         20.551028
  14         O                -7.287833         20.551025
  15         O                -6.779413         15.627729
  16         O                -5.362684         13.028203
  17         O                -4.941012         14.785513
  18         O                -4.939869         14.788817
  19         O                -4.937785         14.793629
  20         O                -3.723309         12.204054
  21         O                -3.719085         12.215280
  22         O                -3.718830         12.216555
  23         O                -1.084976          2.633384
  24         O                -0.969702          2.743976
  25         O                -0.916586          2.993584
  26         O                -0.904762          3.157712
  27         O                -0.660601          2.763825
  28         O                -0.606639          1.802038
  29         O                -0.520629          2.029281
  30         O                -0.517171          2.273362
  31         O                -0.473057          1.961906
  32         O                -0.439239          1.486161
  33         O                -0.418285          2.242027
  34         O                -0.401316          1.585296
  35         O                -0.392301          2.054670
  36         O                -0.386702          2.374189
  37         O                -0.378704          2.275720
  38         O                -0.371748          2.475614
  39         O                -0.370458          2.071909
  40         O                -0.294191          2.326022
  41         O                -0.292007          2.375152
  42         V                -0.139429          3.365780
  43         V                -0.059980          1.765705
  44         V                -0.027431          2.812874
  45         V                -0.009306          1.779976
  46         V                 0.014278          1.869594
  47         V                 0.022882          1.528418
  48         V                 0.029592          0.837950
  49         V                 0.054381          1.651274
  50         V                 0.104983          0.973329
  51         V                 0.110977          0.945727
  52         V                 0.152797          0.875182
  53         V                 0.154595          1.415311
  54         V                 0.178655          1.043805
  55         V                 0.205245          1.240683
  56         V                 0.229398          1.400644
  57         V                 0.244248          1.322549
  58         V                 0.252863          1.326910
  59         V                 0.279201          1.308396
  60         V                 0.300759          1.540719
  61         V                 0.332094          1.240145
  62         V                 0.342019          1.388649
  63         V                 0.346322          1.030371
  64         V                 0.372166          1.161671
  65         V                 0.434202          1.928817
  66         V                 0.494385          2.225066
  67         V                 0.774337          3.574504
  68         V                 0.792415          2.857849
  69         V                 0.815073          2.917129
  70         V                 0.831584          2.762117
  71         V                 0.837091          3.313791
  72         V                 0.916555          3.096827
  73         V                 0.922567          3.155890
  74         V                 0.934507          2.917083
  75         V                 0.975515          3.326337
  76         V                 0.998275          3.405187
  77         V                 1.000602          2.879011
  78         V                 1.210453          2.516293
  79         V                 1.213948          1.950522
  80         V                 1.218406          3.580332
  81         V                 1.240536          2.182008
  82         V                 1.254077          4.386086
  83         V                 1.362627          4.819157
  84         V                 1.372152          4.895481
  85         V                 1.415966          2.765651
  86         V                 1.420358          4.438999
  87         V                 1.498532          4.007470
  88         V                 1.610341          2.781649
  89         V                 1.631655          2.976064
  90         V                 1.665615          3.130751
  91         V                 1.722338          3.116799
  92         V                 2.023135          8.557122
  93         V                 2.078056          8.332382
  94         V                 2.085673          8.378222
  95         V                 2.100674          8.398200
  96         V                 2.128258          8.383173
  97         V                 2.182327          8.592142
  98         V                 2.330868          4.064206
  99         V                 2.333813          4.174456
 100         V                 2.470678          4.216752
 101         V                 4.752014         11.666820
 102         V                 4.754618         11.818783
 103         V                 4.764883         12.088844
 104         V                 4.835572         11.747568
 105         V                 4.862799         11.696995
 106         V                 4.894996         11.889782
 107         V                 5.446856         20.932472
 108         V                 6.551307         26.167737
 109         V                 9.486766         37.146191
 110         V                 9.514580         37.148694
 111         V                11.204995         36.674511
 112         V                11.246954         36.698952
 113         V                11.271950         36.724843
 114         V                13.621798         44.186859
 115         V                13.637184         44.200550
 116         V                13.662466         44.210584
 117         V                25.352438         43.168943
 118         V                25.404251         43.247478
 119         V                25.440881         43.334517
 120         V                25.505496         43.511887
 121         V                25.517064         43.489311
 122         V                25.786694         44.143849
 123         V                49.681202        123.762543
 124         V                49.762834        123.757325
 125         V               140.882574        365.794932
 126         V               162.638266        421.038254
 127         V               215.451728        552.850546
 128         V               215.482824        552.885078
 Total kinetic energy from orbitals= 1.700092443434D+03
 Calling FoFJK, ICntrl=      2127 FMM=F ISym2X=0 I1Cent= 0 IOpClX= 0 NMat=1 NMatS=1 NMatT=0.
 -------------------------------------------------------------------
 Center     Atomic                   Forces (Hartrees/Bohr)
 Number     Number              X              Y              Z
 -------------------------------------------------------------------
      1       14           0.007623156   -0.025519098   -0.002159573
      2        1           0.002559561    0.001481745    0.005036615
      3        1           0.000987767    0.002245009    0.002043794
      4        1           0.000277387    0.002003748    0.002493275
      5        8          -0.024242473    0.001752232   -0.038702869
      6       15           0.082580767    0.030106008    0.152583498
      7        8          -0.025826525   -0.034458731   -0.062107614
      8       17          -0.059349340   -0.001929498   -0.006784850
      9       17           0.015389699    0.024318586   -0.052402276
 -------------------------------------------------------------------
 Cartesian Forces:  Max     0.152583498 RMS     0.041599092

 GradGradGradGradGradGradGradGradGradGradGradGradGradGradGradGradGradGrad
 Berny optimization.
 FormGI is forming the generalized inverse of G from B-inverse, IUseBI=4.
 Internal  Forces:  Max     0.089649228 RMS     0.028477560
 Search for a local minimum.
 Step number   1 out of a maximum of  100
 All quantities printed in internal units (Hartrees-Bohrs-Radians)
 Mixed Optimization -- RFO/linear search
 Second derivative matrix not updated -- first step.
 ITU=  0
     Eigenvalues ---    0.01297   0.01958   0.10345   0.10345   0.16000
     Eigenvalues ---    0.16000   0.16000   0.16138   0.16138   0.18253
     Eigenvalues ---    0.18253   0.18253   0.23889   0.25000   0.25000
     Eigenvalues ---    0.25000   0.25000   0.30384   0.30384   0.34713
     Eigenvalues ---    0.34713
 RFO step:  Lambda=-6.32297287D-02 EMin= 1.29671040D-02
 Linear search not attempted -- first point.
 Maximum step size (   0.300) exceeded in Quadratic search.
    -- Step size scaled by   0.703
 Iteration  1 RMS(Cart)=  0.15609377 RMS(Int)=  0.00657270
 Iteration  2 RMS(Cart)=  0.00835925 RMS(Int)=  0.00028947
 Iteration  3 RMS(Cart)=  0.00001756 RMS(Int)=  0.00028935
 Iteration  4 RMS(Cart)=  0.00000000 RMS(Int)=  0.00028935
 Variable       Old X    -DE/DX   Delta X   Delta X   Delta X     New X
                                 (Linear)    (Quad)   (Total)
    R1        2.77790  -0.00055   0.00000  -0.00156  -0.00156   2.77634
    R2        2.77790  -0.00028   0.00000  -0.00079  -0.00079   2.77710
    R3        2.77790  -0.00028   0.00000  -0.00079  -0.00079   2.77710
    R4        3.45820  -0.00053   0.00000  -0.00124  -0.00124   3.45696
    R5        3.23143   0.01275   0.00000   0.02184   0.02184   3.25328
    R6        3.23143  -0.07556   0.00000  -0.12944  -0.12944   3.10199
    R7        3.85504   0.05935   0.00000   0.11367   0.11367   3.96871
    R8        3.85504   0.05937   0.00000   0.11370   0.11370   3.96874
    A1        1.91063   0.00631   0.00000   0.01956   0.01935   1.92998
    A2        1.91063   0.00632   0.00000   0.01958   0.01937   1.93000
    A3        1.91063  -0.00983   0.00000  -0.03126  -0.03146   1.87917
    A4        1.91063   0.00420   0.00000   0.01384   0.01374   1.92437
    A5        1.91063  -0.00347   0.00000  -0.01079  -0.01094   1.89970
    A6        1.91063  -0.00352   0.00000  -0.01094  -0.01109   1.89954
    A7        1.91114   0.08965   0.00000   0.20120   0.20120   2.11233
    A8        1.91063   0.01174   0.00000   0.03265   0.03252   1.94315
    A9        1.91063  -0.00872   0.00000  -0.02272  -0.02318   1.88745
   A10        1.91063  -0.00871   0.00000  -0.02271  -0.02317   1.88746
   A11        1.91063   0.00740   0.00000   0.02293   0.02280   1.93343
   A12        1.91063   0.00739   0.00000   0.02288   0.02275   1.93338
   A13        1.91063  -0.00910   0.00000  -0.03303  -0.03390   1.87673
    D1        3.13967  -0.00001   0.00000  -0.00008  -0.00008   3.13959
    D2        1.04527   0.00042   0.00000   0.00171   0.00162   1.04689
    D3       -1.04912  -0.00045   0.00000  -0.00193  -0.00184  -1.05096
    D4        3.14131  -0.00003   0.00000  -0.00026  -0.00026   3.14105
    D5        1.04691  -0.01094   0.00000  -0.03442  -0.03378   1.01313
    D6       -1.04748   0.01087   0.00000   0.03385   0.03321  -1.01427
         Item               Value     Threshold  Converged?
 Maximum Force            0.089649     0.000015     NO 
 RMS     Force            0.028478     0.000010     NO 
 Maximum Displacement     0.327287     0.000060     NO 
 RMS     Displacement     0.153001     0.000040     NO 
 Predicted change in Energy=-3.173350D-02
 GradGradGradGradGradGradGradGradGradGradGradGradGradGradGradGradGradGrad

                          Input orientation:                          
 ---------------------------------------------------------------------
 Center     Atomic      Atomic             Coordinates (Angstroms)
 Number     Number       Type             X           Y           Z
 ---------------------------------------------------------------------
      1         14           0       -1.619975   -0.405233   -1.255706
      2          1           0       -1.052824   -1.752408   -1.107606
      3          1           0       -1.119892    0.233971   -2.480858
      4          1           0       -3.088337   -0.462063   -1.274341
      5          8           0       -1.085466    0.583938    0.187323
      6         15           0       -1.558759    2.230226    0.359081
      7          8           0       -0.949415    2.886376    1.734831
      8         17           0       -3.657371    2.310527    0.361381
      9         17           0       -0.887318    3.283305   -1.329380
 ---------------------------------------------------------------------
                    Distance matrix (angstroms):
                    1          2          3          4          5
     1  Si   0.000000
     2  H    1.469175   0.000000
     3  H    1.469579   2.415786   0.000000
     4  H    1.469580   2.415803   2.411415   0.000000
     5  O    1.829342   2.671408   2.691255   2.691110   0.000000
     6  P    3.091428   4.274168   3.498984   3.500870   1.721560
     7  O    4.497517   5.441366   4.983609   4.984190   2.777501
     8  Cl   3.760493   5.044703   4.339264   3.269042   3.102595
     9  Cl   3.761320   5.043311   3.267787   4.344571   3.102617
                    6          7          8          9
     6  P    0.000000
     7  O    1.641501   0.000000
     8  Cl   2.100149   3.090469   0.000000
     9  Cl   2.100169   3.090437   3.387944   0.000000
 Symmetry turned off by external request.
 Stoichiometry    Cl2H3O2PSi
 Framework group  C1[X(Cl2H3O2PSi)]
 Deg. of freedom    21
 Full point group                 C1      NOp   1
 Rotational constants (GHZ):           1.5991085           1.1834999           0.9752182
 Standard basis: 6-311G(3d2f,3p2d) (5D, 7F)
   128 basis functions,   242 primitive gaussians,   128 cartesian basis functions
    41 alpha electrons       41 beta electrons
       nuclear repulsion energy       545.4732118808 Hartrees.



 Warning!  P  atom    6 may be hypervalent but has no d functions.



 NAtoms=    9 NActive=    9 NUniq=    9 SFac= 1.00D+00 NAtFMM=   60 NAOKFM=F Big=F
 Integral buffers will be    131072 words long.
 Raffenetti 2 integral format.
 Two-electron integral symmetry is turned off.
 One-electron integrals computed using PRISM.
 NBasis=   128 RedAO= T EigKep=  1.06D-02  NBF=   128
 NBsUse=   128 1.00D-06 EigRej= -1.00D+00 NBFU=   128
 Initial guess from the checkpoint file:  "H3SiOPOCl2_B3LYP_6-311g.chk"
 B after Tr=    -0.068347    0.058975   -0.077588
         Rot=    0.999879   -0.012723   -0.004408    0.007787 Ang=  -1.78 deg.
 ExpMin= 6.54D-02 ExpMax= 1.06D+05 ExpMxC= 3.62D+03 IAcc=2 IRadAn=         4 AccDes= 0.00D+00
 Harris functional with IExCor=  402 and IRadAn=       4 diagonalized for initial guess.
 HarFok:  IExCor=  402 AccDes= 0.00D+00 IRadAn=         4 IDoV= 1 UseB2=F ITyADJ=14
 ICtDFT=  3500011 ScaDFX=  1.000000  1.000000  1.000000  1.000000
 FoFCou: FMM=F IPFlag=           0 FMFlag=      100000 FMFlg1=           0
         NFxFlg=           0 DoJE=T BraDBF=F KetDBF=T FulRan=T
         wScrn=  0.000000 ICntrl=       500 IOpCl=  0 I1Cent=   200000004 NGrid=           0
         NMat0=    1 NMatS0=      1 NMatT0=    0 NMatD0=    1 NMtDS0=    0 NMtDT0=    0
 Symmetry not used in FoFCou.
 Keep R1 ints in memory in canonical form, NReq=56933861.
 Requested convergence on RMS density matrix=1.00D-08 within 128 cycles.
 Requested convergence on MAX density matrix=1.00D-06.
 Requested convergence on             energy=1.00D-06.
 No special actions if energy rises.
 Integral accuracy reduced to 1.0D-05 until final iterations.
 Initial convergence to 1.0D-05 achieved.  Increase integral accuracy.
 SCF Done:  E(RB3LYP) =  -1703.51608785     A.U. after   15 cycles
            NFock= 15  Conv=0.39D-08     -V/T= 2.0021
 Calling FoFJK, ICntrl=      2127 FMM=F ISym2X=0 I1Cent= 0 IOpClX= 0 NMat=1 NMatS=1 NMatT=0.
 -------------------------------------------------------------------
 Center     Atomic                   Forces (Hartrees/Bohr)
 Number     Number              X              Y              Z
 -------------------------------------------------------------------
      1       14           0.006381421   -0.005561496    0.007280794
      2        1           0.001898645    0.001672303    0.004059394
      3        1           0.000786917    0.002562721    0.000704890
      4        1          -0.000869046    0.001966015    0.001726443
      5        8          -0.021809060    0.010583162   -0.029607822
      6       15           0.061391308   -0.004930559    0.097746444
      7        8          -0.019417162   -0.019136517   -0.042833979
      8       17          -0.036172646   -0.001289240   -0.006124181
      9       17           0.007809623    0.014133610   -0.032951983
 -------------------------------------------------------------------
 Cartesian Forces:  Max     0.097746444 RMS     0.027383999

 GradGradGradGradGradGradGradGradGradGradGradGradGradGradGradGradGradGrad
 Berny optimization.
 Using GEDIIS/GDIIS optimizer.
 FormGI is forming the generalized inverse of G from B-inverse, IUseBI=4.
 Internal  Forces:  Max     0.050756845 RMS     0.016855844
 Search for a local minimum.
 Step number   2 out of a maximum of  100
 All quantities printed in internal units (Hartrees-Bohrs-Radians)
 Mixed Optimization -- RFO/linear search
 Update second derivatives using D2CorX and points    1    2
 DE= -3.37D-02 DEPred=-3.17D-02 R= 1.06D+00
 TightC=F SS=  1.41D+00  RLast= 3.04D-01 DXNew= 5.0454D-01 9.1146D-01
 Trust test= 1.06D+00 RLast= 3.04D-01 DXMaxT set to 5.05D-01
 ITU=  1  0
 Use linear search instead of GDIIS.
 Linear search step of   0.600 exceeds DXMaxT=   0.505 but not scaled.
 Quartic linear search produced a step of  2.00000.
 Iteration  1 RMS(Cart)=  0.13291526 RMS(Int)=  0.04297855
 Iteration  2 RMS(Cart)=  0.15462261 RMS(Int)=  0.00704588
 Iteration  3 RMS(Cart)=  0.01004650 RMS(Int)=  0.00163706
 Iteration  4 RMS(Cart)=  0.00003282 RMS(Int)=  0.00163703
 Iteration  5 RMS(Cart)=  0.00000004 RMS(Int)=  0.00163703
 Variable       Old X    -DE/DX   Delta X   Delta X   Delta X     New X
                                 (Linear)    (Quad)   (Total)
    R1        2.77634  -0.00039  -0.00312   0.00000  -0.00312   2.77322
    R2        2.77710   0.00079  -0.00159   0.00000  -0.00159   2.77551
    R3        2.77710   0.00077  -0.00159   0.00000  -0.00159   2.77552
    R4        3.45696  -0.01361  -0.00249   0.00000  -0.00249   3.45447
    R5        3.25328  -0.01289   0.04369   0.00000   0.04369   3.29697
    R6        3.10199  -0.05076  -0.25889   0.00000  -0.25889   2.84310
    R7        3.96871   0.03609   0.22733   0.00000   0.22733   4.19604
    R8        3.96874   0.03608   0.22740   0.00000   0.22740   4.19615
    A1        1.92998   0.00531   0.03870   0.00000   0.03727   1.96725
    A2        1.93000   0.00531   0.03874   0.00000   0.03730   1.96730
    A3        1.87917  -0.00812  -0.06292   0.00000  -0.06419   1.81499
    A4        1.92437   0.00312   0.02748   0.00000   0.02672   1.95109
    A5        1.89970  -0.00309  -0.02187   0.00000  -0.02281   1.87688
    A6        1.89954  -0.00308  -0.02218   0.00000  -0.02312   1.87642
    A7        2.11233   0.03446   0.40240   0.00000   0.40240   2.51473
    A8        1.94315   0.01228   0.06504   0.00000   0.06409   2.00724
    A9        1.88745  -0.01170  -0.04636   0.00000  -0.04859   1.83886
   A10        1.88746  -0.01176  -0.04635   0.00000  -0.04858   1.83888
   A11        1.93343   0.00809   0.04559   0.00000   0.04468   1.97811
   A12        1.93338   0.00809   0.04550   0.00000   0.04459   1.97797
   A13        1.87673  -0.00652  -0.06781   0.00000  -0.07268   1.80405
    D1        3.13959  -0.00001  -0.00016   0.00000  -0.00017   3.13942
    D2        1.04689   0.00006   0.00324   0.00000   0.00263   1.04953
    D3       -1.05096  -0.00007  -0.00368   0.00000  -0.00307  -1.05403
    D4        3.14105   0.00002  -0.00052   0.00000  -0.00052   3.14053
    D5        1.01313  -0.01001  -0.06757   0.00000  -0.06388   0.94925
    D6       -1.01427   0.01000   0.06642   0.00000   0.06273  -0.95154
         Item               Value     Threshold  Converged?
 Maximum Force            0.050757     0.000015     NO 
 RMS     Force            0.016856     0.000010     NO 
 Maximum Displacement     0.580942     0.000060     NO 
 RMS     Displacement     0.279520     0.000040     NO 
 Predicted change in Energy=-7.964344D-03
 GradGradGradGradGradGradGradGradGradGradGradGradGradGradGradGradGradGrad

                          Input orientation:                          
 ---------------------------------------------------------------------
 Center     Atomic      Atomic             Coordinates (Angstroms)
 Number     Number       Type             X           Y           Z
 ---------------------------------------------------------------------
      1         14           0       -1.629236   -0.537578   -1.346742
      2          1           0       -0.929636   -1.749864   -0.905666
      3          1           0       -1.102693   -0.007170   -2.611104
      4          1           0       -3.087223   -0.708972   -1.392503
      5          8           0       -1.260013    0.686032   -0.039787
      6         15           0       -1.527125    2.333056    0.469989
      7          8           0       -0.868009    2.711795    1.768315
      8         17           0       -3.732442    2.590614    0.495123
      9         17           0       -0.882978    3.590726   -1.242900
 ---------------------------------------------------------------------
                    Distance matrix (angstroms):
                    1          2          3          4          5
     1  Si   0.000000
     2  H    1.467524   0.000000
     3  H    1.468738   2.444473   0.000000
     4  H    1.468739   2.444514   2.432257   0.000000
     5  O    1.828026   2.606240   2.667762   2.667316   0.000000
     6  P    3.398746   4.349673   3.892292   3.893163   1.744679
     7  O    4.565246   5.201958   5.160151   5.159198   2.743467
     8  Cl   4.195417   5.353287   4.828324   3.855737   3.166459
     9  Cl   4.196496   5.351430   3.855531   4.834096   3.166526
                    6          7          8          9
     6  P    0.000000
     7  O    1.504502   0.000000
     8  Cl   2.220448   3.136986   0.000000
     9  Cl   2.220506   3.136903   3.484307   0.000000
 Symmetry turned off by external request.
 Stoichiometry    Cl2H3O2PSi
 Framework group  C1[X(Cl2H3O2PSi)]
 Deg. of freedom    21
 Full point group                 C1      NOp   1
 Rotational constants (GHZ):           1.5301126           1.0303956           0.8555888
 Standard basis: 6-311G(3d2f,3p2d) (5D, 7F)
   128 basis functions,   242 primitive gaussians,   128 cartesian basis functions
    41 alpha electrons       41 beta electrons
       nuclear repulsion energy       526.5501141167 Hartrees.



 Warning!  P  atom    6 may be hypervalent but has no d functions.



 NAtoms=    9 NActive=    9 NUniq=    9 SFac= 1.00D+00 NAtFMM=   60 NAOKFM=F Big=F
 Integral buffers will be    131072 words long.
 Raffenetti 2 integral format.
 Two-electron integral symmetry is turned off.
 One-electron integrals computed using PRISM.
 NBasis=   128 RedAO= T EigKep=  1.22D-02  NBF=   128
 NBsUse=   128 1.00D-06 EigRej= -1.00D+00 NBFU=   128
 Initial guess from the checkpoint file:  "H3SiOPOCl2_B3LYP_6-311g.chk"
 B after Tr=    -0.125315    0.092895   -0.150506
         Rot=    0.999617   -0.022617   -0.007829    0.013872 Ang=  -3.17 deg.
 ExpMin= 6.54D-02 ExpMax= 1.06D+05 ExpMxC= 3.62D+03 IAcc=2 IRadAn=         4 AccDes= 0.00D+00
 Harris functional with IExCor=  402 and IRadAn=       4 diagonalized for initial guess.
 HarFok:  IExCor=  402 AccDes= 0.00D+00 IRadAn=         4 IDoV= 1 UseB2=F ITyADJ=14
 ICtDFT=  3500011 ScaDFX=  1.000000  1.000000  1.000000  1.000000
 FoFCou: FMM=F IPFlag=           0 FMFlag=      100000 FMFlg1=           0
         NFxFlg=           0 DoJE=T BraDBF=F KetDBF=T FulRan=T
         wScrn=  0.000000 ICntrl=       500 IOpCl=  0 I1Cent=   200000004 NGrid=           0
         NMat0=    1 NMatS0=      1 NMatT0=    0 NMatD0=    1 NMtDS0=    0 NMtDT0=    0
 Symmetry not used in FoFCou.
 Keep R1 ints in memory in canonical form, NReq=56933861.
 Requested convergence on RMS density matrix=1.00D-08 within 128 cycles.
 Requested convergence on MAX density matrix=1.00D-06.
 Requested convergence on             energy=1.00D-06.
 No special actions if energy rises.
 Integral accuracy reduced to 1.0D-05 until final iterations.
 Initial convergence to 1.0D-05 achieved.  Increase integral accuracy.
 SCF Done:  E(RB3LYP) =  -1703.53357393     A.U. after   16 cycles
            NFock= 16  Conv=0.33D-08     -V/T= 2.0022
 Calling FoFJK, ICntrl=      2127 FMM=F ISym2X=0 I1Cent= 0 IOpClX= 0 NMat=1 NMatS=1 NMatT=0.
 -------------------------------------------------------------------
 Center     Atomic                   Forces (Hartrees/Bohr)
 Number     Number              X              Y              Z
 -------------------------------------------------------------------
      1       14           0.003987142    0.019305967    0.017621791
      2        1           0.000604037    0.000486325    0.001259022
      3        1           0.000272601    0.000243066   -0.000900551
      4        1          -0.000956596   -0.000195911   -0.000171310
      5        8          -0.012952397    0.024757409   -0.007023036
      6       15          -0.007295232   -0.057529325   -0.045102936
      7        8           0.020671920    0.013204835    0.041551321
      8       17          -0.004415182   -0.000927840   -0.002266558
      9       17           0.000083707    0.000655475   -0.004967742
 -------------------------------------------------------------------
 Cartesian Forces:  Max     0.057529325 RMS     0.018568402

 GradGradGradGradGradGradGradGradGradGradGradGradGradGradGradGradGradGrad
 Berny optimization.
 Using GEDIIS/GDIIS optimizer.
 FormGI is forming the generalized inverse of G from B-inverse, IUseBI=4.
 Internal  Forces:  Max     0.048235858 RMS     0.014261521
 Search for a local minimum.
 Step number   3 out of a maximum of  100
 All quantities printed in internal units (Hartrees-Bohrs-Radians)
 Mixed Optimization -- RFO/linear search
 Update second derivatives using D2CorX and points    2    3
 ITU=  0  1  0
 Use linear search instead of GDIIS.
     Eigenvalues ---    0.01297   0.01958   0.10675   0.11020   0.11599
     Eigenvalues ---    0.15100   0.16000   0.16015   0.16146   0.17850
     Eigenvalues ---    0.18253   0.18253   0.18253   0.24112   0.25000
     Eigenvalues ---    0.25000   0.25002   0.28529   0.30384   0.34600
     Eigenvalues ---    0.45305
 RFO step:  Lambda=-1.08404005D-02 EMin= 1.29671027D-02
 Quartic linear search produced a step of -0.21251.
 Iteration  1 RMS(Cart)=  0.08710708 RMS(Int)=  0.00079108
 Iteration  2 RMS(Cart)=  0.00097362 RMS(Int)=  0.00008902
 Iteration  3 RMS(Cart)=  0.00000031 RMS(Int)=  0.00008902
 Variable       Old X    -DE/DX   Delta X   Delta X   Delta X     New X
                                 (Linear)    (Quad)   (Total)
    R1        2.77322   0.00027   0.00066   0.00026   0.00093   2.77414
    R2        2.77551   0.00096   0.00034   0.00457   0.00490   2.78042
    R3        2.77552   0.00098   0.00034   0.00464   0.00498   2.78049
    R4        3.45447  -0.02681   0.00053  -0.09577  -0.09525   3.35922
    R5        3.29697  -0.04663  -0.00928  -0.10388  -0.11317   3.18380
    R6        2.84310   0.04824   0.05502   0.04168   0.09670   2.93980
    R7        4.19604   0.00425  -0.04831   0.06337   0.01506   4.21110
    R8        4.19615   0.00423  -0.04833   0.06334   0.01501   4.21116
    A1        1.96725   0.00075  -0.00792   0.01343   0.00571   1.97296
    A2        1.96730   0.00075  -0.00793   0.01340   0.00567   1.97297
    A3        1.81499  -0.00338   0.01364  -0.03420  -0.02039   1.79460
    A4        1.95109   0.00010  -0.00568   0.00853   0.00296   1.95405
    A5        1.87688   0.00077   0.00485  -0.00309   0.00188   1.87877
    A6        1.87642   0.00078   0.00491  -0.00308   0.00196   1.87838
    A7        2.51473  -0.00513  -0.08551   0.06187  -0.02365   2.49109
    A8        2.00724   0.00678  -0.01362   0.04239   0.02888   2.03612
    A9        1.83886  -0.00710   0.01033  -0.03906  -0.02865   1.81021
   A10        1.83888  -0.00703   0.01032  -0.03888  -0.02848   1.81040
   A11        1.97811   0.00334  -0.00949   0.02609   0.01670   1.99481
   A12        1.97797   0.00334  -0.00948   0.02614   0.01677   1.99474
   A13        1.80405  -0.00128   0.01544  -0.03109  -0.01560   1.78846
    D1        3.13942  -0.00001   0.00004  -0.00039  -0.00035   3.13907
    D2        1.04953   0.00048  -0.00056   0.00295   0.00248   1.05200
    D3       -1.05403  -0.00050   0.00065  -0.00374  -0.00317  -1.05720
    D4        3.14053  -0.00005   0.00011  -0.00075  -0.00065   3.13988
    D5        0.94925  -0.00344   0.01357  -0.03283  -0.01923   0.93002
    D6       -0.95154   0.00340  -0.01333   0.03152   0.01816  -0.93338
         Item               Value     Threshold  Converged?
 Maximum Force            0.048236     0.000015     NO 
 RMS     Force            0.014262     0.000010     NO 
 Maximum Displacement     0.202220     0.000060     NO 
 RMS     Displacement     0.087472     0.000040     NO 
 Predicted change in Energy=-7.005091D-03
 GradGradGradGradGradGradGradGradGradGradGradGradGradGradGradGradGradGrad

                          Input orientation:                          
 ---------------------------------------------------------------------
 Center     Atomic      Atomic             Coordinates (Angstroms)
 Number     Number       Type             X           Y           Z
 ---------------------------------------------------------------------
      1         14           0       -1.637014   -0.475386   -1.323465
      2          1           0       -0.938278   -1.690391   -0.886892
      3          1           0       -1.110009    0.070563   -2.584032
      4          1           0       -3.099313   -0.634093   -1.361345
      5          8           0       -1.254879    0.685024   -0.032198
      6         15           0       -1.512542    2.275420    0.460534
      7          8           0       -0.848334    2.707773    1.799198
      8         17           0       -3.730745    2.486014    0.427683
      9         17           0       -0.888242    3.483716   -1.304758
 ---------------------------------------------------------------------
                    Distance matrix (angstroms):
                    1          2          3          4          5
     1  Si   0.000000
     2  H    1.468014   0.000000
     3  H    1.471334   2.451680   0.000000
     4  H    1.471373   2.451722   2.439023   0.000000
     5  O    1.777624   2.544275   2.628765   2.628429   0.000000
     6  P    3.281017   4.227646   3.780583   3.781844   1.684794
     7  O    4.528304   5.154320   5.122115   5.120938   2.758769
     8  Cl   4.027420   5.193104   4.666164   3.651629   3.095959
     9  Cl   4.029330   5.191194   3.651758   4.674226   3.096209
                    6          7          8          9
     6  P    0.000000
     7  O    1.555675   0.000000
     8  Cl   2.228419   3.199769   0.000000
     9  Cl   2.228449   3.199723   3.475138   0.000000
 Symmetry turned off by external request.
 Stoichiometry    Cl2H3O2PSi
 Framework group  C1[X(Cl2H3O2PSi)]
 Deg. of freedom    21
 Full point group                 C1      NOp   1
 Rotational constants (GHZ):           1.5100934           1.0834214           0.9023050
 Standard basis: 6-311G(3d2f,3p2d) (5D, 7F)
   128 basis functions,   242 primitive gaussians,   128 cartesian basis functions
    41 alpha electrons       41 beta electrons
       nuclear repulsion energy       531.6481892985 Hartrees.
 NAtoms=    9 NActive=    9 NUniq=    9 SFac= 1.00D+00 NAtFMM=   60 NAOKFM=F Big=F
 Integral buffers will be    131072 words long.
 Raffenetti 2 integral format.
 Two-electron integral symmetry is turned off.
 One-electron integrals computed using PRISM.
 NBasis=   128 RedAO= T EigKep=  1.19D-02  NBF=   128
 NBsUse=   128 1.00D-06 EigRej= -1.00D+00 NBFU=   128
 Initial guess from the checkpoint file:  "H3SiOPOCl2_B3LYP_6-311g.chk"
 B after Tr=     0.022672   -0.057831    0.005119
         Rot=    0.999986    0.004355    0.001654   -0.002611 Ang=   0.61 deg.
 ExpMin= 6.54D-02 ExpMax= 1.06D+05 ExpMxC= 3.62D+03 IAcc=2 IRadAn=         4 AccDes= 0.00D+00
 Harris functional with IExCor=  402 and IRadAn=       4 diagonalized for initial guess.
 HarFok:  IExCor=  402 AccDes= 0.00D+00 IRadAn=         4 IDoV= 1 UseB2=F ITyADJ=14
 ICtDFT=  3500011 ScaDFX=  1.000000  1.000000  1.000000  1.000000
 FoFCou: FMM=F IPFlag=           0 FMFlag=      100000 FMFlg1=           0
         NFxFlg=           0 DoJE=T BraDBF=F KetDBF=T FulRan=T
         wScrn=  0.000000 ICntrl=       500 IOpCl=  0 I1Cent=   200000004 NGrid=           0
         NMat0=    1 NMatS0=      1 NMatT0=    0 NMatD0=    1 NMtDS0=    0 NMtDT0=    0
 Symmetry not used in FoFCou.
 Keep R1 ints in memory in canonical form, NReq=56933861.
 Requested convergence on RMS density matrix=1.00D-08 within 128 cycles.
 Requested convergence on MAX density matrix=1.00D-06.
 Requested convergence on             energy=1.00D-06.
 No special actions if energy rises.
 Integral accuracy reduced to 1.0D-05 until final iterations.
 Initial convergence to 1.0D-05 achieved.  Increase integral accuracy.
 SCF Done:  E(RB3LYP) =  -1703.54242216     A.U. after   13 cycles
            NFock= 13  Conv=0.80D-08     -V/T= 2.0022
 Calling FoFJK, ICntrl=      2127 FMM=F ISym2X=0 I1Cent= 0 IOpClX= 0 NMat=1 NMatS=1 NMatT=0.
 -------------------------------------------------------------------
 Center     Atomic                   Forces (Hartrees/Bohr)
 Number     Number              X              Y              Z
 -------------------------------------------------------------------
      1       14           0.003307071    0.005980528    0.008871984
      2        1          -0.000179109   -0.000363808   -0.000508793
      3        1          -0.000310548   -0.000285576   -0.000224012
      4        1           0.000055421   -0.000154287   -0.000461569
      5        8          -0.008680071    0.019008114   -0.003358695
      6       15           0.009014703   -0.026176659   -0.000278800
      7        8          -0.000658995    0.000941769   -0.000481592
      8       17          -0.002995715   -0.000081766   -0.000752706
      9       17           0.000447243    0.001131685   -0.002805817
 -------------------------------------------------------------------
 Cartesian Forces:  Max     0.026176659 RMS     0.007100480

 GradGradGradGradGradGradGradGradGradGradGradGradGradGradGradGradGradGrad
 Berny optimization.
 Using GEDIIS/GDIIS optimizer.
 FormGI is forming the generalized inverse of G from B-inverse, IUseBI=4.
 Internal  Forces:  Max     0.024977280 RMS     0.005397468
 Search for a local minimum.
 Step number   4 out of a maximum of  100
 All quantities printed in internal units (Hartrees-Bohrs-Radians)
 Mixed Optimization -- RFO/linear search
 Update second derivatives using D2CorX and points    3    4
 DE= -8.85D-03 DEPred=-7.01D-03 R= 1.26D+00
 TightC=F SS=  1.41D+00  RLast= 1.92D-01 DXNew= 8.4853D-01 5.7529D-01
 Trust test= 1.26D+00 RLast= 1.92D-01 DXMaxT set to 5.75D-01
 ITU=  1  0  1  0
 Use linear search instead of GDIIS.
     Eigenvalues ---    0.01297   0.01958   0.10549   0.10898   0.11116
     Eigenvalues ---    0.14849   0.15972   0.16000   0.16066   0.18243
     Eigenvalues ---    0.18253   0.18253   0.18352   0.20221   0.24815
     Eigenvalues ---    0.25000   0.25077   0.28031   0.29555   0.30384
     Eigenvalues ---    0.50224
 RFO step:  Lambda=-2.94505655D-03 EMin= 1.29671059D-02
 Quartic linear search produced a step of  0.40116.
 Iteration  1 RMS(Cart)=  0.04442955 RMS(Int)=  0.00081756
 Iteration  2 RMS(Cart)=  0.00139863 RMS(Int)=  0.00020391
 Iteration  3 RMS(Cart)=  0.00000135 RMS(Int)=  0.00020391
 Iteration  4 RMS(Cart)=  0.00000000 RMS(Int)=  0.00020391
 Variable       Old X    -DE/DX   Delta X   Delta X   Delta X     New X
                                 (Linear)    (Quad)   (Total)
    R1        2.77414   0.00007   0.00037   0.00012   0.00050   2.77464
    R2        2.78042  -0.00003   0.00197  -0.00152   0.00045   2.78087
    R3        2.78049  -0.00002   0.00200  -0.00146   0.00054   2.78103
    R4        3.35922  -0.00958  -0.03821  -0.03722  -0.07543   3.28379
    R5        3.18380  -0.02498  -0.04540  -0.07501  -0.12041   3.06339
    R6        2.93980  -0.00044   0.03879  -0.03898  -0.00019   2.93961
    R7        4.21110   0.00298   0.00604   0.03202   0.03806   4.24917
    R8        4.21116   0.00297   0.00602   0.03198   0.03800   4.24916
    A1        1.97296  -0.00059   0.00229  -0.00300  -0.00073   1.97223
    A2        1.97297  -0.00059   0.00227  -0.00302  -0.00077   1.97220
    A3        1.79460   0.00127  -0.00818   0.01038   0.00218   1.79678
    A4        1.95405  -0.00091   0.00119  -0.00772  -0.00655   1.94750
    A5        1.87877   0.00060   0.00075   0.00299   0.00373   1.88250
    A6        1.87838   0.00058   0.00079   0.00276   0.00354   1.88192
    A7        2.49109   0.00440  -0.00949   0.06900   0.05951   2.55060
    A8        2.03612   0.00385   0.01159   0.02236   0.03388   2.07000
    A9        1.81021  -0.00237  -0.01149  -0.01213  -0.02384   1.78637
   A10        1.81040  -0.00232  -0.01142  -0.01182  -0.02346   1.78694
   A11        1.99481   0.00039   0.00670   0.00371   0.01035   2.00515
   A12        1.99474   0.00038   0.00673   0.00373   0.01038   2.00512
   A13        1.78846  -0.00083  -0.00626  -0.01187  -0.01877   1.76969
    D1        3.13907  -0.00000  -0.00014  -0.00007  -0.00021   3.13886
    D2        1.05200  -0.00022   0.00099  -0.00312  -0.00214   1.04987
    D3       -1.05720   0.00021  -0.00127   0.00284   0.00157  -1.05563
    D4        3.13988  -0.00004  -0.00026  -0.00175  -0.00201   3.13787
    D5        0.93002  -0.00124  -0.00771  -0.01196  -0.01912   0.91091
    D6       -0.93338   0.00119   0.00728   0.00874   0.01547  -0.91791
         Item               Value     Threshold  Converged?
 Maximum Force            0.024977     0.000015     NO 
 RMS     Force            0.005397     0.000010     NO 
 Maximum Displacement     0.089317     0.000060     NO 
 RMS     Displacement     0.045052     0.000040     NO 
 Predicted change in Energy=-2.320762D-03
 GradGradGradGradGradGradGradGradGradGradGradGradGradGradGradGradGradGrad

                          Input orientation:                          
 ---------------------------------------------------------------------
 Center     Atomic      Atomic             Coordinates (Angstroms)
 Number     Number       Type             X           Y           Z
 ---------------------------------------------------------------------
      1         14           0       -1.638682   -0.442056   -1.306554
      2          1           0       -0.929452   -1.643126   -0.848016
      3          1           0       -1.115502    0.084747   -2.577100
      4          1           0       -3.098809   -0.619600   -1.354393
      5          8           0       -1.284360    0.718145   -0.062360
      6         15           0       -1.497891    2.237107    0.462097
      7          8           0       -0.832246    2.662789    1.802069
      8         17           0       -3.735115    2.455440    0.405590
      9         17           0       -0.887299    3.455194   -1.326607
 ---------------------------------------------------------------------
                    Distance matrix (angstroms):
                    1          2          3          4          5
     1  Si   0.000000
     2  H    1.468276   0.000000
     3  H    1.471573   2.451509   0.000000
     4  H    1.471660   2.451558   2.434056   0.000000
     5  O    1.737708   2.513726   2.598774   2.598296   0.000000
     6  P    3.213388   4.134698   3.743741   3.744777   1.621078
     7  O    4.466983   5.057006   5.089564   5.086713   2.731692
     8  Cl   3.965091   5.122648   4.623742   3.599764   3.040291
     9  Cl   3.969072   5.120908   3.602183   4.636324   3.040956
                    6          7          8          9
     6  P    0.000000
     7  O    1.555575   0.000000
     8  Cl   2.248562   3.227971   0.000000
     9  Cl   2.248560   3.227934   3.479952   0.000000
 Symmetry turned off by external request.
 Stoichiometry    Cl2H3O2PSi
 Framework group  C1[X(Cl2H3O2PSi)]
 Deg. of freedom    21
 Full point group                 C1      NOp   1
 Rotational constants (GHZ):           1.4982270           1.1126265           0.9250126
 Standard basis: 6-311G(3d2f,3p2d) (5D, 7F)
   128 basis functions,   242 primitive gaussians,   128 cartesian basis functions
    41 alpha electrons       41 beta electrons
       nuclear repulsion energy       535.5043295065 Hartrees.



 Warning!  P  atom    6 may be hypervalent but has no d functions.



 NAtoms=    9 NActive=    9 NUniq=    9 SFac= 1.00D+00 NAtFMM=   60 NAOKFM=F Big=F
 Integral buffers will be    131072 words long.
 Raffenetti 2 integral format.
 Two-electron integral symmetry is turned off.
 One-electron integrals computed using PRISM.
 NBasis=   128 RedAO= T EigKep=  1.17D-02  NBF=   128
 NBsUse=   128 1.00D-06 EigRej= -1.00D+00 NBFU=   128
 Initial guess from the checkpoint file:  "H3SiOPOCl2_B3LYP_6-311g.chk"
 B after Tr=    -0.001996   -0.028992   -0.017333
         Rot=    1.000000   -0.000475    0.000159    0.000377 Ang=  -0.07 deg.
 ExpMin= 6.54D-02 ExpMax= 1.06D+05 ExpMxC= 3.62D+03 IAcc=2 IRadAn=         4 AccDes= 0.00D+00
 Harris functional with IExCor=  402 and IRadAn=       4 diagonalized for initial guess.
 HarFok:  IExCor=  402 AccDes= 0.00D+00 IRadAn=         4 IDoV= 1 UseB2=F ITyADJ=14
 ICtDFT=  3500011 ScaDFX=  1.000000  1.000000  1.000000  1.000000
 FoFCou: FMM=F IPFlag=           0 FMFlag=      100000 FMFlg1=           0
         NFxFlg=           0 DoJE=T BraDBF=F KetDBF=T FulRan=T
         wScrn=  0.000000 ICntrl=       500 IOpCl=  0 I1Cent=   200000004 NGrid=           0
         NMat0=    1 NMatS0=      1 NMatT0=    0 NMatD0=    1 NMtDS0=    0 NMtDT0=    0
 Symmetry not used in FoFCou.
 Keep R1 ints in memory in canonical form, NReq=56933861.
 Requested convergence on RMS density matrix=1.00D-08 within 128 cycles.
 Requested convergence on MAX density matrix=1.00D-06.
 Requested convergence on             energy=1.00D-06.
 No special actions if energy rises.
 Integral accuracy reduced to 1.0D-05 until final iterations.
 Initial convergence to 1.0D-05 achieved.  Increase integral accuracy.
 SCF Done:  E(RB3LYP) =  -1703.54464333     A.U. after   14 cycles
            NFock= 14  Conv=0.33D-08     -V/T= 2.0021
 Calling FoFJK, ICntrl=      2127 FMM=F ISym2X=0 I1Cent= 0 IOpClX= 0 NMat=1 NMatS=1 NMatT=0.
 -------------------------------------------------------------------
 Center     Atomic                   Forces (Hartrees/Bohr)
 Number     Number              X              Y              Z
 -------------------------------------------------------------------
      1       14           0.001759563   -0.005166882   -0.000017647
      2        1          -0.000443169   -0.000749630   -0.001163248
      3        1          -0.000053758   -0.000061828    0.000124436
      4        1           0.000166510    0.000020627   -0.000016166
      5        8          -0.002436939    0.002123105   -0.002911759
      6       15           0.001171184    0.002547360    0.003426142
      7        8          -0.000597540    0.000555645   -0.000621815
      8       17           0.000215052    0.000371032    0.000564479
      9       17           0.000219098    0.000360571    0.000615579
 -------------------------------------------------------------------
 Cartesian Forces:  Max     0.005166882 RMS     0.001639680

 GradGradGradGradGradGradGradGradGradGradGradGradGradGradGradGradGradGrad
 Berny optimization.
 Using GEDIIS/GDIIS optimizer.
 FormGI is forming the generalized inverse of G from B-inverse, IUseBI=4.
 Internal  Forces:  Max     0.010301929 RMS     0.002523821
 Search for a local minimum.
 Step number   5 out of a maximum of  100
 All quantities printed in internal units (Hartrees-Bohrs-Radians)
 Mixed Optimization -- RFO/linear search
 Update second derivatives using D2CorX and points    3    4    5
 DE= -2.22D-03 DEPred=-2.32D-03 R= 9.57D-01
 TightC=F SS=  1.41D+00  RLast= 1.74D-01 DXNew= 9.6751D-01 5.2089D-01
 Trust test= 9.57D-01 RLast= 1.74D-01 DXMaxT set to 5.75D-01
 ITU=  1  1  0  1  0
 Use linear search instead of GDIIS.
     Eigenvalues ---    0.01297   0.01958   0.08757   0.10669   0.11088
     Eigenvalues ---    0.14486   0.15685   0.16000   0.16046   0.18225
     Eigenvalues ---    0.18253   0.18253   0.18299   0.24421   0.24782
     Eigenvalues ---    0.25000   0.26318   0.28580   0.30384   0.34696
     Eigenvalues ---    0.50035
 RFO step:  Lambda=-6.58979149D-04 EMin= 1.29671218D-02
 Quartic linear search produced a step of -0.06787.
 Iteration  1 RMS(Cart)=  0.03811830 RMS(Int)=  0.00042225
 Iteration  2 RMS(Cart)=  0.00065426 RMS(Int)=  0.00001007
 Iteration  3 RMS(Cart)=  0.00000013 RMS(Int)=  0.00001007
 Variable       Old X    -DE/DX   Delta X   Delta X   Delta X     New X
                                 (Linear)    (Quad)   (Total)
    R1        2.77464   0.00004  -0.00003   0.00027   0.00024   2.77488
    R2        2.78087  -0.00016  -0.00003  -0.00047  -0.00050   2.78037
    R3        2.78103  -0.00016  -0.00004  -0.00048  -0.00051   2.78052
    R4        3.28379   0.00445   0.00512  -0.00005   0.00507   3.28886
    R5        3.06339   0.00475   0.00817  -0.00850  -0.00032   3.06307
    R6        2.93961  -0.00064   0.00001   0.00200   0.00201   2.94163
    R7        4.24917  -0.00020  -0.00258   0.01442   0.01184   4.26100
    R8        4.24916  -0.00023  -0.00258   0.01432   0.01174   4.26091
    A1        1.97223  -0.00085   0.00005  -0.00246  -0.00242   1.96981
    A2        1.97220  -0.00085   0.00005  -0.00244  -0.00239   1.96981
    A3        1.79678   0.00327  -0.00015   0.01476   0.01461   1.81138
    A4        1.94750  -0.00034   0.00044  -0.00307  -0.00264   1.94486
    A5        1.88250  -0.00045  -0.00025  -0.00266  -0.00292   1.87958
    A6        1.88192  -0.00047  -0.00024  -0.00282  -0.00307   1.87885
    A7        2.55060   0.01030  -0.00404   0.06097   0.05693   2.60753
    A8        2.07000   0.00071  -0.00230   0.01015   0.00785   2.07785
    A9        1.78637   0.00139   0.00162  -0.00147   0.00015   1.78652
   A10        1.78694   0.00139   0.00159  -0.00139   0.00021   1.78715
   A11        2.00515  -0.00158  -0.00070  -0.00219  -0.00290   2.00226
   A12        2.00512  -0.00159  -0.00070  -0.00223  -0.00294   2.00218
   A13        1.76969   0.00006   0.00127  -0.00469  -0.00339   1.76630
    D1        3.13886   0.00000   0.00001   0.00014   0.00015   3.13901
    D2        1.04987  -0.00046   0.00014  -0.00327  -0.00312   1.04675
    D3       -1.05563   0.00047  -0.00011   0.00349   0.00338  -1.05226
    D4        3.13787  -0.00002   0.00014  -0.00173  -0.00159   3.13628
    D5        0.91091   0.00040   0.00130  -0.00461  -0.00334   0.90757
    D6       -0.91791  -0.00046  -0.00105   0.00119   0.00016  -0.91775
         Item               Value     Threshold  Converged?
 Maximum Force            0.010302     0.000015     NO 
 RMS     Force            0.002524     0.000010     NO 
 Maximum Displacement     0.083474     0.000060     NO 
 RMS     Displacement     0.037990     0.000040     NO 
 Predicted change in Energy=-3.341546D-04
 GradGradGradGradGradGradGradGradGradGradGradGradGradGradGradGradGradGrad

                          Input orientation:                          
 ---------------------------------------------------------------------
 Center     Atomic      Atomic             Coordinates (Angstroms)
 Number     Number       Type             X           Y           Z
 ---------------------------------------------------------------------
      1         14           0       -1.635789   -0.461001   -1.312429
      2          1           0       -0.918118   -1.649920   -0.835329
      3          1           0       -1.113315    0.047548   -2.590378
      4          1           0       -3.093097   -0.656576   -1.367063
      5          8           0       -1.309524    0.737360   -0.093230
      6         15           0       -1.499405    2.247130    0.465232
      7          8           0       -0.823171    2.646601    1.809204
      8         17           0       -3.739869    2.498132    0.425760
      9         17           0       -0.887069    3.499366   -1.307043
 ---------------------------------------------------------------------
                    Distance matrix (angstroms):
                    1          2          3          4          5
     1  Si   0.000000
     2  H    1.468402   0.000000
     3  H    1.471310   2.449428   0.000000
     4  H    1.471388   2.449491   2.431425   0.000000
     5  O    1.740392   2.530419   2.598093   2.597468   0.000000
     6  P    3.242322   4.149259   3.784703   3.785322   1.620906
     7  O    4.479077   5.046055   5.118162   5.113923   2.738794
     8  Cl   4.025534   5.172907   4.690547   3.685744   3.045693
     9  Cl   4.030524   5.170941   3.689605   4.705531   3.046390
                    6          7          8          9
     6  P    0.000000
     7  O    1.556641   0.000000
     8  Cl   2.254826   3.231577   0.000000
     9  Cl   2.254775   3.231453   3.484759   0.000000
 Symmetry turned off by external request.
 Stoichiometry    Cl2H3O2PSi
 Framework group  C1[X(Cl2H3O2PSi)]
 Deg. of freedom    21
 Full point group                 C1      NOp   1
 Rotational constants (GHZ):           1.4971455           1.0920040           0.9092175
 Standard basis: 6-311G(3d2f,3p2d) (5D, 7F)
   128 basis functions,   242 primitive gaussians,   128 cartesian basis functions
    41 alpha electrons       41 beta electrons
       nuclear repulsion energy       533.2889327809 Hartrees.



 Warning!  P  atom    6 may be hypervalent but has no d functions.



 NAtoms=    9 NActive=    9 NUniq=    9 SFac= 1.00D+00 NAtFMM=   60 NAOKFM=F Big=F
 Integral buffers will be    131072 words long.
 Raffenetti 2 integral format.
 Two-electron integral symmetry is turned off.
 One-electron integrals computed using PRISM.
 NBasis=   128 RedAO= T EigKep=  1.19D-02  NBF=   128
 NBsUse=   128 1.00D-06 EigRej= -1.00D+00 NBFU=   128
 Initial guess from the checkpoint file:  "H3SiOPOCl2_B3LYP_6-311g.chk"
 B after Tr=    -0.015947    0.015733   -0.015087
         Rot=    0.999994   -0.002835   -0.000769    0.001797 Ang=  -0.39 deg.
 ExpMin= 6.54D-02 ExpMax= 1.06D+05 ExpMxC= 3.62D+03 IAcc=2 IRadAn=         4 AccDes= 0.00D+00
 Harris functional with IExCor=  402 and IRadAn=       4 diagonalized for initial guess.
 HarFok:  IExCor=  402 AccDes= 0.00D+00 IRadAn=         4 IDoV= 1 UseB2=F ITyADJ=14
 ICtDFT=  3500011 ScaDFX=  1.000000  1.000000  1.000000  1.000000
 FoFCou: FMM=F IPFlag=           0 FMFlag=      100000 FMFlg1=           0
         NFxFlg=           0 DoJE=T BraDBF=F KetDBF=T FulRan=T
         wScrn=  0.000000 ICntrl=       500 IOpCl=  0 I1Cent=   200000004 NGrid=           0
         NMat0=    1 NMatS0=      1 NMatT0=    0 NMatD0=    1 NMtDS0=    0 NMtDT0=    0
 Symmetry not used in FoFCou.
 Keep R1 ints in memory in canonical form, NReq=56933861.
 Requested convergence on RMS density matrix=1.00D-08 within 128 cycles.
 Requested convergence on MAX density matrix=1.00D-06.
 Requested convergence on             energy=1.00D-06.
 No special actions if energy rises.
 Integral accuracy reduced to 1.0D-05 until final iterations.
 EnCoef did     2 forward-backward iterations
 Initial convergence to 1.0D-05 achieved.  Increase integral accuracy.
 SCF Done:  E(RB3LYP) =  -1703.54518665     A.U. after   13 cycles
            NFock= 13  Conv=0.34D-08     -V/T= 2.0021
 Calling FoFJK, ICntrl=      2127 FMM=F ISym2X=0 I1Cent= 0 IOpClX= 0 NMat=1 NMatS=1 NMatT=0.
 -------------------------------------------------------------------
 Center     Atomic                   Forces (Hartrees/Bohr)
 Number     Number              X              Y              Z
 -------------------------------------------------------------------
      1       14           0.001378732   -0.002255359    0.001035142
      2        1          -0.000218433   -0.000349457   -0.000565300
      3        1           0.000163391    0.000000373    0.000099777
      4        1           0.000042983   -0.000043109    0.000164122
      5        8          -0.002226796    0.001607420   -0.002862619
      6       15           0.000104410    0.001851145    0.001261662
      7        8          -0.000760377   -0.000148084   -0.001298189
      8       17           0.001514398   -0.000054051    0.000600026
      9       17           0.000001691   -0.000608880    0.001565378
 -------------------------------------------------------------------
 Cartesian Forces:  Max     0.002862619 RMS     0.001172921

 GradGradGradGradGradGradGradGradGradGradGradGradGradGradGradGradGradGrad
 Berny optimization.
 Using GEDIIS/GDIIS optimizer.
 FormGI is forming the generalized inverse of G from B-inverse, IUseBI=4.
 Internal  Forces:  Max     0.007535139 RMS     0.001672848
 Search for a local minimum.
 Step number   6 out of a maximum of  100
 All quantities printed in internal units (Hartrees-Bohrs-Radians)
 Mixed Optimization -- RFO/linear search
 Update second derivatives using D2CorX and points    3    4    5    6
 DE= -5.43D-04 DEPred=-3.34D-04 R= 1.63D+00
 TightC=F SS=  1.41D+00  RLast= 6.26D-02 DXNew= 9.6751D-01 1.8793D-01
 Trust test= 1.63D+00 RLast= 6.26D-02 DXMaxT set to 5.75D-01
 ITU=  1  1  1  0  1  0
 Use linear search instead of GDIIS.
     Eigenvalues ---    0.01297   0.01955   0.03844   0.10768   0.11022
     Eigenvalues ---    0.14372   0.15098   0.16000   0.16062   0.17359
     Eigenvalues ---    0.18253   0.18253   0.18264   0.23140   0.24517
     Eigenvalues ---    0.25000   0.25228   0.29005   0.30384   0.33081
     Eigenvalues ---    0.51172
 RFO step:  Lambda=-5.33189208D-04 EMin= 1.29670862D-02
 Quartic linear search produced a step of  2.00000.
 Iteration  1 RMS(Cart)=  0.11190605 RMS(Int)=  0.00452113
 Iteration  2 RMS(Cart)=  0.00784040 RMS(Int)=  0.00003038
 Iteration  3 RMS(Cart)=  0.00000682 RMS(Int)=  0.00002893
 Iteration  4 RMS(Cart)=  0.00000000 RMS(Int)=  0.00002893
 Variable       Old X    -DE/DX   Delta X   Delta X   Delta X     New X
                                 (Linear)    (Quad)   (Total)
    R1        2.77488  -0.00001   0.00048  -0.00027   0.00021   2.77509
    R2        2.78037  -0.00003  -0.00099   0.00089  -0.00010   2.78027
    R3        2.78052  -0.00004  -0.00103   0.00087  -0.00016   2.78036
    R4        3.28886   0.00105   0.01015  -0.02693  -0.01679   3.27208
    R5        3.06307   0.00160  -0.00065  -0.02403  -0.02468   3.03839
    R6        2.94163  -0.00149   0.00403  -0.00530  -0.00127   2.94036
    R7        4.26100  -0.00153   0.02367  -0.00055   0.02312   4.28413
    R8        4.26091  -0.00156   0.02349  -0.00081   0.02267   4.28358
    A1        1.96981  -0.00045  -0.00484  -0.00110  -0.00596   1.96385
    A2        1.96981  -0.00044  -0.00479  -0.00104  -0.00584   1.96397
    A3        1.81138   0.00154   0.02921   0.00057   0.02977   1.84115
    A4        1.94486   0.00016  -0.00529   0.00712   0.00175   1.94661
    A5        1.87958  -0.00036  -0.00584  -0.00330  -0.00919   1.87040
    A6        1.87885  -0.00036  -0.00614  -0.00313  -0.00931   1.86954
    A7        2.60753   0.00754   0.11386   0.06555   0.17941   2.78694
    A8        2.07785  -0.00024   0.01569   0.00016   0.01582   2.09367
    A9        1.78652   0.00093   0.00029  -0.00172  -0.00145   1.78507
   A10        1.78715   0.00090   0.00042  -0.00205  -0.00165   1.78550
   A11        2.00226  -0.00096  -0.00579  -0.00153  -0.00735   1.99491
   A12        2.00218  -0.00096  -0.00588  -0.00147  -0.00738   1.99480
   A13        1.76630   0.00076  -0.00678   0.00770   0.00090   1.76720
    D1        3.13901   0.00000   0.00030   0.00026   0.00057   3.13958
    D2        1.04675  -0.00010  -0.00624   0.00278  -0.00340   1.04335
    D3       -1.05226   0.00011   0.00675  -0.00210   0.00459  -1.04767
    D4        3.13628  -0.00002  -0.00318  -0.00357  -0.00675   3.12953
    D5        0.90757   0.00064  -0.00668  -0.00012  -0.00681   0.90076
    D6       -0.91775  -0.00069   0.00033  -0.00723  -0.00689  -0.92464
         Item               Value     Threshold  Converged?
 Maximum Force            0.007535     0.000015     NO 
 RMS     Force            0.001673     0.000010     NO 
 Maximum Displacement     0.212869     0.000060     NO 
 RMS     Displacement     0.110025     0.000040     NO 
 Predicted change in Energy=-5.263398D-04
 GradGradGradGradGradGradGradGradGradGradGradGradGradGradGradGradGradGrad

                          Input orientation:                          
 ---------------------------------------------------------------------
 Center     Atomic      Atomic             Coordinates (Angstroms)
 Number     Number       Type             X           Y           Z
 ---------------------------------------------------------------------
      1         14           0       -1.630473   -0.497268   -1.323591
      2          1           0       -0.879746   -1.632673   -0.772415
      3          1           0       -1.102112   -0.049152   -2.621519
      4          1           0       -3.077144   -0.756997   -1.390056
      5          8           0       -1.396707    0.800283   -0.201167
      6         15           0       -1.509315    2.262517    0.457895
      7          8           0       -0.797947    2.562826    1.808752
      8         17           0       -3.749854    2.607093    0.486594
      9         17           0       -0.876059    3.612012   -1.249768
 ---------------------------------------------------------------------
                    Distance matrix (angstroms):
                    1          2          3          4          5
     1  Si   0.000000
     2  H    1.468513   0.000000
     3  H    1.471255   2.444621   0.000000
     4  H    1.471303   2.444759   2.432755   0.000000
     5  O    1.731509   2.552028   2.581943   2.581172   0.000000
     6  P    3.287064   4.133101   3.872004   3.871754   1.607847
     7  O    4.457449   4.926594   5.151917   5.142795   2.739497
     8  Cl   4.172002   5.272403   4.870989   3.910429   3.045469
     9  Cl   4.178609   5.266365   3.916238   4.894149   3.045728
                    6          7          8          9
     6  P    0.000000
     7  O    1.555970   0.000000
     8  Cl   2.267062   3.234782   0.000000
     9  Cl   2.266774   3.234414   3.504784   0.000000
 Symmetry turned off by external request.
 Stoichiometry    Cl2H3O2PSi
 Framework group  C1[X(Cl2H3O2PSi)]
 Deg. of freedom    21
 Full point group                 C1      NOp   1
 Rotational constants (GHZ):           1.4994906           1.0538234           0.8743058
 Standard basis: 6-311G(3d2f,3p2d) (5D, 7F)
   128 basis functions,   242 primitive gaussians,   128 cartesian basis functions
    41 alpha electrons       41 beta electrons
       nuclear repulsion energy       529.7024703570 Hartrees.



 Warning!  P  atom    6 may be hypervalent but has no d functions.



 NAtoms=    9 NActive=    9 NUniq=    9 SFac= 1.00D+00 NAtFMM=   60 NAOKFM=F Big=F
 Integral buffers will be    131072 words long.
 Raffenetti 2 integral format.
 Two-electron integral symmetry is turned off.
 One-electron integrals computed using PRISM.
 NBasis=   128 RedAO= T EigKep=  1.22D-02  NBF=   128
 NBsUse=   128 1.00D-06 EigRej= -1.00D+00 NBFU=   128
 Initial guess from the checkpoint file:  "H3SiOPOCl2_B3LYP_6-311g.chk"
 B after Tr=    -0.052796    0.025218   -0.061376
         Rot=    0.999936   -0.009234   -0.002349    0.006055 Ang=  -1.29 deg.
 ExpMin= 6.54D-02 ExpMax= 1.06D+05 ExpMxC= 3.62D+03 IAcc=2 IRadAn=         4 AccDes= 0.00D+00
 Harris functional with IExCor=  402 and IRadAn=       4 diagonalized for initial guess.
 HarFok:  IExCor=  402 AccDes= 0.00D+00 IRadAn=         4 IDoV= 1 UseB2=F ITyADJ=14
 ICtDFT=  3500011 ScaDFX=  1.000000  1.000000  1.000000  1.000000
 FoFCou: FMM=F IPFlag=           0 FMFlag=      100000 FMFlg1=           0
         NFxFlg=           0 DoJE=T BraDBF=F KetDBF=T FulRan=T
         wScrn=  0.000000 ICntrl=       500 IOpCl=  0 I1Cent=   200000004 NGrid=           0
         NMat0=    1 NMatS0=      1 NMatT0=    0 NMatD0=    1 NMtDS0=    0 NMtDT0=    0
 Symmetry not used in FoFCou.
 Keep R1 ints in memory in canonical form, NReq=56933861.
 Requested convergence on RMS density matrix=1.00D-08 within 128 cycles.
 Requested convergence on MAX density matrix=1.00D-06.
 Requested convergence on             energy=1.00D-06.
 No special actions if energy rises.
 Integral accuracy reduced to 1.0D-05 until final iterations.
 Initial convergence to 1.0D-05 achieved.  Increase integral accuracy.
 SCF Done:  E(RB3LYP) =  -1703.54601979     A.U. after   14 cycles
            NFock= 14  Conv=0.38D-08     -V/T= 2.0022
 Calling FoFJK, ICntrl=      2127 FMM=F ISym2X=0 I1Cent= 0 IOpClX= 0 NMat=1 NMatS=1 NMatT=0.
 -------------------------------------------------------------------
 Center     Atomic                   Forces (Hartrees/Bohr)
 Number     Number              X              Y              Z
 -------------------------------------------------------------------
      1       14           0.000184520    0.000079442    0.000427829
      2        1           0.000133754   -0.000009146    0.000211373
      3        1           0.000222964   -0.000131024    0.000032110
      4        1           0.000031608   -0.000212308    0.000146795
      5        8          -0.000859009   -0.001851056   -0.002540074
      6       15          -0.002903023    0.006085017   -0.001335643
      7        8          -0.000186241   -0.000516312   -0.000574313
      8       17           0.004183067   -0.000832361    0.000305125
      9       17          -0.000807639   -0.002612253    0.003326798
 -------------------------------------------------------------------
 Cartesian Forces:  Max     0.006085017 RMS     0.001883019

 GradGradGradGradGradGradGradGradGradGradGradGradGradGradGradGradGradGrad
 Berny optimization.
 Using GEDIIS/GDIIS optimizer.
 FormGI is forming the generalized inverse of G from B-inverse, IUseBI=4.
 Internal  Forces:  Max     0.004287147 RMS     0.001560987
 Search for a local minimum.
 Step number   7 out of a maximum of  100
 All quantities printed in internal units (Hartrees-Bohrs-Radians)
 Mixed Optimization -- RFO/linear search
 Update second derivatives using D2CorX and points    3    4    5    6    7
 DE= -8.33D-04 DEPred=-5.26D-04 R= 1.58D+00
 TightC=F SS=  1.41D+00  RLast= 1.89D-01 DXNew= 9.6751D-01 5.6761D-01
 Trust test= 1.58D+00 RLast= 1.89D-01 DXMaxT set to 5.75D-01
 ITU=  1  1  1  1  0  1  0
 Use linear search instead of GDIIS.
     Eigenvalues ---    0.01297   0.01911   0.02212   0.10887   0.10900
     Eigenvalues ---    0.14179   0.14888   0.16000   0.16064   0.17714
     Eigenvalues ---    0.18253   0.18256   0.18264   0.22992   0.24480
     Eigenvalues ---    0.25000   0.25202   0.30384   0.31090   0.34665
     Eigenvalues ---    0.52793
 RFO step:  Lambda=-4.53561167D-04 EMin= 1.29668222D-02
 Quartic linear search produced a step of  1.09790.
 Iteration  1 RMS(Cart)=  0.11747290 RMS(Int)=  0.01122158
 Iteration  2 RMS(Cart)=  0.02672211 RMS(Int)=  0.00148872
 Iteration  3 RMS(Cart)=  0.00213695 RMS(Int)=  0.00003439
 Iteration  4 RMS(Cart)=  0.00003678 RMS(Int)=  0.00002826
 Iteration  5 RMS(Cart)=  0.00000001 RMS(Int)=  0.00002826
 Variable       Old X    -DE/DX   Delta X   Delta X   Delta X     New X
                                 (Linear)    (Quad)   (Total)
    R1        2.77509   0.00015   0.00023   0.00186   0.00209   2.77718
    R2        2.78027   0.00001  -0.00011   0.00007  -0.00004   2.78022
    R3        2.78036  -0.00000  -0.00018  -0.00005  -0.00023   2.78013
    R4        3.27208  -0.00040  -0.01843  -0.00696  -0.02539   3.24669
    R5        3.03839   0.00262  -0.02710   0.00584  -0.02125   3.01714
    R6        2.94036  -0.00068  -0.00139   0.00276   0.00136   2.94172
    R7        4.28413  -0.00426   0.02539  -0.01763   0.00775   4.29188
    R8        4.28358  -0.00429   0.02489  -0.01779   0.00710   4.29069
    A1        1.96385  -0.00010  -0.00654  -0.00243  -0.00895   1.95490
    A2        1.96397  -0.00010  -0.00641  -0.00241  -0.00881   1.95517
    A3        1.84115  -0.00063   0.03268  -0.00562   0.02708   1.86823
    A4        1.94661   0.00032   0.00192   0.00375   0.00559   1.95219
    A5        1.87040   0.00023  -0.01008   0.00317  -0.00694   1.86345
    A6        1.86954   0.00027  -0.01022   0.00364  -0.00661   1.86292
    A7        2.78694   0.00417   0.19698   0.04166   0.23864   3.02558
    A8        2.09367  -0.00117   0.01737  -0.00335   0.01402   2.10769
    A9        1.78507   0.00021  -0.00159  -0.00153  -0.00313   1.78194
   A10        1.78550   0.00015  -0.00181  -0.00190  -0.00371   1.78179
   A11        1.99491   0.00000  -0.00807   0.00056  -0.00752   1.98739
   A12        1.99480   0.00005  -0.00810   0.00088  -0.00722   1.98758
   A13        1.76720   0.00113   0.00099   0.00651   0.00750   1.77470
    D1        3.13958  -0.00001   0.00063   0.00036   0.00099   3.14056
    D2        1.04335   0.00032  -0.00373   0.00450   0.00085   1.04420
    D3       -1.04767  -0.00032   0.00504  -0.00352   0.00144  -1.04623
    D4        3.12953  -0.00000  -0.00741  -0.00517  -0.01257   3.11696
    D5        0.90076   0.00064  -0.00748  -0.00214  -0.00961   0.89115
    D6       -0.92464  -0.00065  -0.00756  -0.00809  -0.01565  -0.94029
         Item               Value     Threshold  Converged?
 Maximum Force            0.004287     0.000015     NO 
 RMS     Force            0.001561     0.000010     NO 
 Maximum Displacement     0.285970     0.000060     NO 
 RMS     Displacement     0.143320     0.000040     NO 
 Predicted change in Energy=-1.337069D-04
 GradGradGradGradGradGradGradGradGradGradGradGradGradGradGradGradGradGrad

                          Input orientation:                          
 ---------------------------------------------------------------------
 Center     Atomic      Atomic             Coordinates (Angstroms)
 Number     Number       Type             X           Y           Z
 ---------------------------------------------------------------------
      1         14           0       -1.627557   -0.523578   -1.332827
      2          1           0       -0.830280   -1.568599   -0.675517
      3          1           0       -1.084828   -0.164064   -2.652190
      4          1           0       -3.052775   -0.881065   -1.405881
      5          8           0       -1.519934    0.883242   -0.352496
      6         15           0       -1.528851    2.272926    0.433526
      7          8           0       -0.772129    2.428098    1.785036
      8         17           0       -3.749462    2.730742    0.565754
      9         17           0       -0.853540    3.730937   -1.170680
 ---------------------------------------------------------------------
                    Distance matrix (angstroms):
                    1          2          3          4          5
     1  Si   0.000000
     2  H    1.469618   0.000000
     3  H    1.471231   2.438186   0.000000
     4  H    1.471184   2.438364   2.437251   0.000000
     5  O    1.718073   2.567390   2.564129   2.563592   0.000000
     6  P    3.309105   4.058977   3.956983   3.956440   1.596599
     7  O    4.377809   4.693750   5.148403   5.131652   2.741320
     8  Cl   4.324083   5.342913   5.082848   4.173472   3.037636
     9  Cl   4.327388   5.322669   4.173655   5.114931   3.036919
                    6          7          8          9
     6  P    0.000000
     7  O    1.556691   0.000000
     8  Cl   2.271166   3.231525   0.000000
     9  Cl   2.270533   3.231142   3.521642   0.000000
 Symmetry turned off by external request.
 Stoichiometry    Cl2H3O2PSi
 Framework group  C1[X(Cl2H3O2PSi)]
 Deg. of freedom    21
 Full point group                 C1      NOp   1
 Rotational constants (GHZ):           1.5160404           1.0229740           0.8418170
 Standard basis: 6-311G(3d2f,3p2d) (5D, 7F)
   128 basis functions,   242 primitive gaussians,   128 cartesian basis functions
    41 alpha electrons       41 beta electrons
       nuclear repulsion energy       527.4181285570 Hartrees.



 Warning!  P  atom    6 may be hypervalent but has no d functions.



 NAtoms=    9 NActive=    9 NUniq=    9 SFac= 1.00D+00 NAtFMM=   60 NAOKFM=F Big=F
 Integral buffers will be    131072 words long.
 Raffenetti 2 integral format.
 Two-electron integral symmetry is turned off.
 One-electron integrals computed using PRISM.
 NBasis=   128 RedAO= T EigKep=  1.24D-02  NBF=   128
 NBsUse=   128 1.00D-06 EigRej= -1.00D+00 NBFU=   128
 Initial guess from the checkpoint file:  "H3SiOPOCl2_B3LYP_6-311g.chk"
 B after Tr=    -0.073884    0.010642   -0.090539
         Rot=    0.999882   -0.012389   -0.002902    0.008629 Ang=  -1.76 deg.
 ExpMin= 6.54D-02 ExpMax= 1.06D+05 ExpMxC= 3.62D+03 IAcc=2 IRadAn=         4 AccDes= 0.00D+00
 Harris functional with IExCor=  402 and IRadAn=       4 diagonalized for initial guess.
 HarFok:  IExCor=  402 AccDes= 0.00D+00 IRadAn=         4 IDoV= 1 UseB2=F ITyADJ=14
 ICtDFT=  3500011 ScaDFX=  1.000000  1.000000  1.000000  1.000000
 FoFCou: FMM=F IPFlag=           0 FMFlag=      100000 FMFlg1=           0
         NFxFlg=           0 DoJE=T BraDBF=F KetDBF=T FulRan=T
         wScrn=  0.000000 ICntrl=       500 IOpCl=  0 I1Cent=   200000004 NGrid=           0
         NMat0=    1 NMatS0=      1 NMatT0=    0 NMatD0=    1 NMtDS0=    0 NMtDT0=    0
 Symmetry not used in FoFCou.
 Keep R1 ints in memory in canonical form, NReq=56933861.
 Requested convergence on RMS density matrix=1.00D-08 within 128 cycles.
 Requested convergence on MAX density matrix=1.00D-06.
 Requested convergence on             energy=1.00D-06.
 No special actions if energy rises.
 Integral accuracy reduced to 1.0D-05 until final iterations.
 Initial convergence to 1.0D-05 achieved.  Increase integral accuracy.
 SCF Done:  E(RB3LYP) =  -1703.54649765     A.U. after   13 cycles
            NFock= 13  Conv=0.94D-08     -V/T= 2.0022
 Calling FoFJK, ICntrl=      2127 FMM=F ISym2X=0 I1Cent= 0 IOpClX= 0 NMat=1 NMatS=1 NMatT=0.
 -------------------------------------------------------------------
 Center     Atomic                   Forces (Hartrees/Bohr)
 Number     Number              X              Y              Z
 -------------------------------------------------------------------
      1       14          -0.000550914   -0.001171840   -0.001528778
      2        1           0.000253658    0.000298234    0.000591788
      3        1           0.000050631   -0.000113949    0.000007956
      4        1           0.000041177   -0.000116113    0.000008904
      5        8           0.000213254   -0.003855674   -0.001873493
      6       15          -0.004021549    0.011260738   -0.000185668
      7        8          -0.000050873   -0.000951939   -0.000624029
      8       17           0.005672008   -0.001434314   -0.000372382
      9       17          -0.001607393   -0.003915142    0.003975702
 -------------------------------------------------------------------
 Cartesian Forces:  Max     0.011260738 RMS     0.002952497

 GradGradGradGradGradGradGradGradGradGradGradGradGradGradGradGradGradGrad
 Berny optimization.
 Using GEDIIS/GDIIS optimizer.
 FormGI is forming the generalized inverse of G from B-inverse, IUseBI=4.
 Internal  Forces:  Max     0.005856809 RMS     0.002064060
 Search for a local minimum.
 Step number   8 out of a maximum of  100
 All quantities printed in internal units (Hartrees-Bohrs-Radians)
 Mixed Optimization -- RFO/linear search
 Update second derivatives using D2CorX and points    4    5    6    7    8
 DE= -4.78D-04 DEPred=-1.34D-04 R= 3.57D+00
 TightC=F SS=  1.41D+00  RLast= 2.45D-01 DXNew= 9.6751D-01 7.3522D-01
 Trust test= 3.57D+00 RLast= 2.45D-01 DXMaxT set to 7.35D-01
 ITU=  1  1  1  1  1  0  1  0
 Use linear search instead of GDIIS.
     Eigenvalues ---    0.01204   0.01298   0.01994   0.10782   0.10925
     Eigenvalues ---    0.14041   0.14731   0.16000   0.16079   0.17568
     Eigenvalues ---    0.18253   0.18257   0.18264   0.23441   0.24756
     Eigenvalues ---    0.25000   0.25578   0.30384   0.32252   0.38170
     Eigenvalues ---    0.52738
 RFO step:  Lambda=-3.71303911D-04 EMin= 1.20408804D-02
 Quartic linear search produced a step of  0.08967.
 Iteration  1 RMS(Cart)=  0.04206824 RMS(Int)=  0.00129495
 Iteration  2 RMS(Cart)=  0.00119811 RMS(Int)=  0.00001024
 Iteration  3 RMS(Cart)=  0.00001544 RMS(Int)=  0.00000141
 Iteration  4 RMS(Cart)=  0.00000000 RMS(Int)=  0.00000141
 Variable       Old X    -DE/DX   Delta X   Delta X   Delta X     New X
                                 (Linear)    (Quad)   (Total)
    R1        2.77718   0.00019   0.00019   0.00111   0.00129   2.77847
    R2        2.78022  -0.00001  -0.00000  -0.00025  -0.00025   2.77997
    R3        2.78013  -0.00001  -0.00002  -0.00027  -0.00029   2.77985
    R4        3.24669   0.00144  -0.00228   0.00716   0.00488   3.25157
    R5        3.01714   0.00569  -0.00191   0.01447   0.01257   3.02970
    R6        2.94172  -0.00066   0.00012   0.00052   0.00065   2.94237
    R7        4.29188  -0.00586   0.00070  -0.01690  -0.01621   4.27567
    R8        4.29069  -0.00580   0.00064  -0.01685  -0.01622   4.27447
    A1        1.95490   0.00027  -0.00080  -0.00153  -0.00233   1.95257
    A2        1.95517   0.00027  -0.00079  -0.00157  -0.00236   1.95281
    A3        1.86823  -0.00165   0.00243   0.00074   0.00317   1.87140
    A4        1.95219   0.00014   0.00050   0.00115   0.00165   1.95384
    A5        1.86345   0.00044  -0.00062   0.00072   0.00010   1.86355
    A6        1.86292   0.00045  -0.00059   0.00071   0.00012   1.86304
    A7        3.02558   0.00169   0.02140   0.04147   0.06287   3.08845
    A8        2.10769  -0.00182   0.00126  -0.00443  -0.00318   2.10451
    A9        1.78194  -0.00026  -0.00028   0.00090   0.00062   1.78256
   A10        1.78179  -0.00020  -0.00033   0.00108   0.00074   1.78253
   A11        1.98739   0.00087  -0.00067  -0.00051  -0.00118   1.98621
   A12        1.98758   0.00086  -0.00065  -0.00047  -0.00112   1.98646
   A13        1.77470   0.00077   0.00067   0.00511   0.00578   1.78048
    D1        3.14056   0.00001   0.00009   0.00038   0.00047   3.14103
    D2        1.04420   0.00032   0.00008   0.00140   0.00148   1.04568
    D3       -1.04623  -0.00031   0.00013  -0.00069  -0.00056  -1.04678
    D4        3.11696  -0.00001  -0.00113  -0.00191  -0.00304   3.11393
    D5        0.89115   0.00035  -0.00086   0.00118   0.00032   0.89147
    D6       -0.94029  -0.00034  -0.00140  -0.00479  -0.00619  -0.94648
         Item               Value     Threshold  Converged?
 Maximum Force            0.005857     0.000015     NO 
 RMS     Force            0.002064     0.000010     NO 
 Maximum Displacement     0.080903     0.000060     NO 
 RMS     Displacement     0.042222     0.000040     NO 
 Predicted change in Energy=-1.905362D-04
 GradGradGradGradGradGradGradGradGradGradGradGradGradGradGradGradGradGrad

                          Input orientation:                          
 ---------------------------------------------------------------------
 Center     Atomic      Atomic             Coordinates (Angstroms)
 Number     Number       Type             X           Y           Z
 ---------------------------------------------------------------------
      1         14           0       -1.627743   -0.532080   -1.337879
      2          1           0       -0.817905   -1.546670   -0.647546
      3          1           0       -1.078512   -0.200103   -2.661611
      4          1           0       -3.045025   -0.919060   -1.411979
      5          8           0       -1.555043    0.905604   -0.395308
      6         15           0       -1.537583    2.282777    0.425361
      7          8           0       -0.767331    2.391399    1.774163
      8         17           0       -3.741842    2.765535    0.591186
      9         17           0       -0.848373    3.761239   -1.141663
 ---------------------------------------------------------------------
                    Distance matrix (angstroms):
                    1          2          3          4          5
     1  Si   0.000000
     2  H    1.470303   0.000000
     3  H    1.471098   2.436723   0.000000
     4  H    1.471031   2.436866   2.438371   0.000000
     5  O    1.720657   2.573061   2.566281   2.565748   0.000000
     6  P    3.322734   4.041501   3.988087   3.987475   1.603249
     7  O    4.355667   4.623377   5.146727   5.128208   2.744937
     8  Cl   4.366345   5.355275   5.144805   4.251407   3.035557
     9  Cl   4.367895   5.330945   4.249169   5.177214   3.034976
                    6          7          8          9
     6  P    0.000000
     7  O    1.557033   0.000000
     8  Cl   2.262589   3.222907   0.000000
     9  Cl   2.261952   3.222588   3.516583   0.000000
 Symmetry turned off by external request.
 Stoichiometry    Cl2H3O2PSi
 Framework group  C1[X(Cl2H3O2PSi)]
 Deg. of freedom    21
 Full point group                 C1      NOp   1
 Rotational constants (GHZ):           1.5296683           1.0140499           0.8333790
 Standard basis: 6-311G(3d2f,3p2d) (5D, 7F)
   128 basis functions,   242 primitive gaussians,   128 cartesian basis functions
    41 alpha electrons       41 beta electrons
       nuclear repulsion energy       527.0759202074 Hartrees.



 Warning!  P  atom    6 may be hypervalent but has no d functions.



 NAtoms=    9 NActive=    9 NUniq=    9 SFac= 1.00D+00 NAtFMM=   60 NAOKFM=F Big=F
 Integral buffers will be    131072 words long.
 Raffenetti 2 integral format.
 Two-electron integral symmetry is turned off.
 One-electron integrals computed using PRISM.
 NBasis=   128 RedAO= T EigKep=  1.25D-02  NBF=   128
 NBsUse=   128 1.00D-06 EigRej= -1.00D+00 NBFU=   128
 Initial guess from the checkpoint file:  "H3SiOPOCl2_B3LYP_6-311g.chk"
 B after Tr=    -0.021094    0.002656   -0.027038
         Rot=    0.999989   -0.003694   -0.001021    0.002528 Ang=  -0.53 deg.
 ExpMin= 6.54D-02 ExpMax= 1.06D+05 ExpMxC= 3.62D+03 IAcc=2 IRadAn=         4 AccDes= 0.00D+00
 Harris functional with IExCor=  402 and IRadAn=       4 diagonalized for initial guess.
 HarFok:  IExCor=  402 AccDes= 0.00D+00 IRadAn=         4 IDoV= 1 UseB2=F ITyADJ=14
 ICtDFT=  3500011 ScaDFX=  1.000000  1.000000  1.000000  1.000000
 FoFCou: FMM=F IPFlag=           0 FMFlag=      100000 FMFlg1=           0
         NFxFlg=           0 DoJE=T BraDBF=F KetDBF=T FulRan=T
         wScrn=  0.000000 ICntrl=       500 IOpCl=  0 I1Cent=   200000004 NGrid=           0
         NMat0=    1 NMatS0=      1 NMatT0=    0 NMatD0=    1 NMtDS0=    0 NMtDT0=    0
 Symmetry not used in FoFCou.
 Keep R1 ints in memory in canonical form, NReq=56933861.
 Requested convergence on RMS density matrix=1.00D-08 within 128 cycles.
 Requested convergence on MAX density matrix=1.00D-06.
 Requested convergence on             energy=1.00D-06.
 No special actions if energy rises.
 Integral accuracy reduced to 1.0D-05 until final iterations.
 Initial convergence to 1.0D-05 achieved.  Increase integral accuracy.
 SCF Done:  E(RB3LYP) =  -1703.54679478     A.U. after   13 cycles
            NFock= 13  Conv=0.83D-08     -V/T= 2.0022
 Calling FoFJK, ICntrl=      2127 FMM=F ISym2X=0 I1Cent= 0 IOpClX= 0 NMat=1 NMatS=1 NMatT=0.
 -------------------------------------------------------------------
 Center     Atomic                   Forces (Hartrees/Bohr)
 Number     Number              X              Y              Z
 -------------------------------------------------------------------
      1       14          -0.000296808    0.000122657   -0.000386564
      2        1           0.000176094    0.000395703    0.000521026
      3        1          -0.000025176   -0.000001743   -0.000008657
      4        1          -0.000008919    0.000003089   -0.000028838
      5        8           0.000069417   -0.001266066   -0.000638706
      6       15          -0.002891767    0.006025385   -0.001263065
      7        8          -0.000097389   -0.000792178   -0.000621629
      8       17           0.004552426   -0.001230054   -0.000573615
      9       17          -0.001477879   -0.003256793    0.003000049
 -------------------------------------------------------------------
 Cartesian Forces:  Max     0.006025385 RMS     0.001869572

 GradGradGradGradGradGradGradGradGradGradGradGradGradGradGradGradGradGrad
 Berny optimization.
 Using GEDIIS/GDIIS optimizer.
 FormGI is forming the generalized inverse of G from B-inverse, IUseBI=4.
 Internal  Forces:  Max     0.004739472 RMS     0.001410329
 Search for a local minimum.
 Step number   9 out of a maximum of  100
 All quantities printed in internal units (Hartrees-Bohrs-Radians)
 Mixed Optimization -- RFO/linear search
 Update second derivatives using D2CorX and points    5    6    7    8    9
 DE= -2.97D-04 DEPred=-1.91D-04 R= 1.56D+00
 TightC=F SS=  1.41D+00  RLast= 6.92D-02 DXNew= 1.2365D+00 2.0749D-01
 Trust test= 1.56D+00 RLast= 6.92D-02 DXMaxT set to 7.35D-01
 ITU=  1  1  1  1  1  1  0  1  0
 Use linear search instead of GDIIS.
     Eigenvalues ---    0.00887   0.01297   0.01979   0.10767   0.10923
     Eigenvalues ---    0.13667   0.14101   0.15967   0.16000   0.16341
     Eigenvalues ---    0.18252   0.18253   0.18266   0.18891   0.24659
     Eigenvalues ---    0.25000   0.25091   0.27675   0.30385   0.41444
     Eigenvalues ---    0.52602
 RFO step:  Lambda=-3.35468768D-04 EMin= 8.86880368D-03
 Quartic linear search produced a step of  1.61909.
 New curvilinear step failed, DQL= 7.68D+00 SP=-3.13D-02.
 ITry= 1 IFail=1 DXMaxC= 0.00D+00 DCOld= 1.00D+10 DXMaxT= 7.35D-01 DXLimC= 3.00D+00 Rises=F
 New curvilinear step failed, DQL= 7.68D+00 SP=-3.20D-02.
 ITry= 2 IFail=1 DXMaxC= 0.00D+00 DCOld= 1.00D+10 DXMaxT= 7.35D-01 DXLimC= 3.00D+00 Rises=F
 Iteration  1 RMS(Cart)=  0.01189825 RMS(Int)=  0.03499914
 New curvilinear step failed, DQL= 7.69D+00 SP=-3.68D-02.
 ITry= 3 IFail=1 DXMaxC= 2.39D-02 DCOld= 1.00D+10 DXMaxT= 7.35D-01 DXLimC= 3.00D+00 Rises=F
 Iteration  1 RMS(Cart)=  0.01125266 RMS(Int)=  0.03300056
 New curvilinear step failed, DQL= 7.69D+00 SP=-3.69D-02.
 ITry= 4 IFail=1 DXMaxC= 2.26D-02 DCOld= 1.00D+10 DXMaxT= 7.35D-01 DXLimC= 3.00D+00 Rises=F
 Iteration  1 RMS(Cart)=  0.01060825 RMS(Int)=  0.03101038
 New curvilinear step failed, DQL= 7.69D+00 SP=-3.72D-02.
 ITry= 5 IFail=1 DXMaxC= 2.12D-02 DCOld= 1.00D+10 DXMaxT= 7.35D-01 DXLimC= 3.00D+00 Rises=F
 Iteration  1 RMS(Cart)=  0.00996524 RMS(Int)=  0.02903038
 New curvilinear step failed, DQL= 7.69D+00 SP=-3.78D-02.
 ITry= 6 IFail=1 DXMaxC= 1.99D-02 DCOld= 1.00D+10 DXMaxT= 7.35D-01 DXLimC= 3.00D+00 Rises=F
 Iteration  1 RMS(Cart)=  0.00932392 RMS(Int)=  0.02706285
 New curvilinear step failed, DQL= 7.69D+00 SP=-3.87D-02.
 ITry= 7 IFail=1 DXMaxC= 1.85D-02 DCOld= 1.00D+10 DXMaxT= 7.35D-01 DXLimC= 3.00D+00 Rises=F
 Iteration  1 RMS(Cart)=  0.00868467 RMS(Int)=  0.02511076
 New curvilinear step failed, DQL= 7.69D+00 SP=-2.59D-03.
 ITry= 8 IFail=1 DXMaxC= 1.72D-02 DCOld= 1.00D+10 DXMaxT= 7.35D-01 DXLimC= 3.00D+00 Rises=F
 New curvilinear step failed, DQL= 7.68D+00 SP=-1.41D-03.
 ITry= 9 IFail=1 DXMaxC= 0.00D+00 DCOld= 1.00D+10 DXMaxT= 7.35D-01 DXLimC= 3.00D+00 Rises=F
 New curvilinear step failed, DQL= 7.68D+00 SP=-4.92D-03.
 ITry=10 IFail=1 DXMaxC= 0.00D+00 DCOld= 1.00D+10 DXMaxT= 7.35D-01 DXLimC= 3.00D+00 Rises=F
 RedQX1 iteration     1 Try  1 RMS(Cart)=  0.02638454 RMS(Int)=  0.03462797 XScale=  4.58607591
 RedQX1 iteration     1 Try  2 RMS(Cart)=  0.02636738 RMS(Int)=  1.47914932 XScale=  0.02930926
 RedQX1 iteration     2 Try  1 RMS(Cart)=  0.02109391 RMS(Int)=  1.47629874 XScale=  0.02931741
 RedQX1 iteration     3 Try  1 RMS(Cart)=  0.00421878 RMS(Int)=  0.03433855 XScale=  2.79645966
 RedQX1 iteration     3 Try  2 RMS(Cart)=  0.00421796 RMS(Int)=  1.47139363 XScale=  0.02941297
 RedQX1 iteration     4 Try  1 RMS(Cart)=  0.00404924 RMS(Int)=  1.47060878 XScale=  0.02942861
 RedQX1 iteration     5 Try  1 RMS(Cart)=  0.00080985 RMS(Int)=  0.03604139 XScale=  2.11100410
 RedQX1 iteration     5 Try  2 RMS(Cart)=  0.00080985 RMS(Int)=  0.04994578 XScale=  1.02434962
 RedQX1 iteration     5 Try  3 RMS(Cart)=  0.00081010 RMS(Int)=  1.45120648 XScale=  0.02982109
 RedQX1 iteration     6 Try  1 RMS(Cart)=  0.00079714 RMS(Int)=  1.44969449 XScale=  0.02985214
 RedQX1 iteration     7 Try  1 RMS(Cart)=  0.00015943 RMS(Int)=  0.06204396 XScale=  0.76070322
 RedQX1 iteration     8 Try  1 RMS(Cart)=  0.00003189 RMS(Int)=  0.05156155 XScale=  0.97678430
 RedQX1 iteration     9 Try  1 RMS(Cart)=  0.00000638 RMS(Int)=  0.05024807 XScale=  1.01502211
 RedQX1 iteration     9 Try  2 RMS(Cart)=  0.00000638 RMS(Int)=  0.05055890 XScale=  1.00564496
 RedQX1 iteration     9 Try  3 RMS(Cart)=  0.00000638 RMS(Int)=  0.05087863 XScale=  0.99621739
 RedQX1 iteration    10 Try  1 RMS(Cart)=  0.00000638 RMS(Int)=  0.05087859 XScale=  0.99621861
 RedQX1 iteration    11 Try  1 RMS(Cart)=  0.00000128 RMS(Int)=  0.05062200 XScale=  1.00376720
 RedQX1 iteration    11 Try  2 RMS(Cart)=  0.00000128 RMS(Int)=  0.05068546 XScale=  1.00188744
 RedQX1 iteration    11 Try  3 RMS(Cart)=  0.00000128 RMS(Int)=  0.05074927 XScale=  1.00000565
 B after Tr=     0.000000    0.000000   -0.000000
         Rot=    1.000000    0.000000    0.000000    0.000000 Ang=   0.00 deg.
 Variable       Old X    -DE/DX   Delta X   Delta X   Delta X     New X
                                 (Linear)    (Quad)   (Total)
    R1        2.77847   0.00007   0.00209   0.00090   0.00162   2.78009
    R2        2.77997   0.00000  -0.00041  -0.00025   0.00013   2.78011
    R3        2.77985   0.00001  -0.00047  -0.00019   0.00018   2.78003
    R4        3.25157  -0.00048   0.00791  -0.01577  -0.00068   3.25089
    R5        3.02970   0.00092   0.02035  -0.01839   0.00133   3.03103
    R6        2.94237  -0.00064   0.00105   0.00078   0.00131   2.94367
    R7        4.27567  -0.00474  -0.02624  -0.01842  -0.01048   4.26519
    R8        4.27447  -0.00466  -0.02626  -0.01810  -0.01042   4.26405
    A1        1.95257   0.00041  -0.00378  -0.00017  -0.00086   1.95171
    A2        1.95281   0.00040  -0.00382  -0.00021  -0.00091   1.95190
    A3        1.87140  -0.00151   0.00514   0.00485   0.00246   1.87386
    A4        1.95384   0.00010   0.00267   0.00036   0.00040   1.95424
    A5        1.86355   0.00025   0.00016  -0.00248  -0.00052   1.86303
    A6        1.86304   0.00026   0.00020  -0.00234  -0.00042   1.86262
    A7        3.08845   0.00096   0.10179   0.11265   0.05241   3.14086
    A8        2.10451  -0.00126  -0.00515   0.00311  -0.00050   2.10401
    A9        1.78256  -0.00057   0.00101  -0.00610  -0.00117   1.78139
   A10        1.78253  -0.00054   0.00120  -0.00594  -0.00106   1.78147
   A11        1.98621   0.00100  -0.00192   0.00312   0.00032   1.98653
   A12        1.98646   0.00099  -0.00181   0.00316   0.00032   1.98678
   A13        1.78048   0.00038   0.00936   0.00117   0.00233   1.78282
    D1        3.14103   0.00001   0.00076   0.00200   0.08821  -3.05394
    D2        1.04568   0.00019   0.00239   0.00096   0.08820   1.13388
    D3       -1.04678  -0.00018  -0.00090   0.00306   0.08822  -0.95856
    D4        3.11393  -0.00000  -0.00491  -0.00637  -0.09029   3.02364
    D5        0.89147   0.00006   0.00052  -0.00735  -0.08931   0.80216
    D6       -0.94648  -0.00004  -0.01002  -0.00520  -0.09116  -1.03764
         Item               Value     Threshold  Converged?
 Maximum Force            0.004739     0.000015     NO 
 RMS     Force            0.001410     0.000010     NO 
 Maximum Displacement     0.064966     0.000060     NO 
 RMS     Displacement     0.032239     0.000040     NO 
 Predicted change in Energy=-2.490838D-04
 GradGradGradGradGradGradGradGradGradGradGradGradGradGradGradGradGradGrad

                          Input orientation:                          
 ---------------------------------------------------------------------
 Center     Atomic      Atomic             Coordinates (Angstroms)
 Number     Number       Type             X           Y           Z
 ---------------------------------------------------------------------
      1         14           0       -1.627862   -0.534793   -1.339569
      2          1           0       -0.808193   -1.524066   -0.622777
      3          1           0       -1.073835   -0.223836   -2.666481
      4          1           0       -3.038828   -0.944405   -1.414471
      5          8           0       -1.583775    0.924516   -0.429686
      6         15           0       -1.543443    2.285617    0.417925
      7          8           0       -0.762762    2.357307    1.763995
      8         17           0       -3.735574    2.788417    0.607660
      9         17           0       -0.845083    3.779882   -1.121871
 ---------------------------------------------------------------------
                    Distance matrix (angstroms):
                    1          2          3          4          5
     1  Si   0.000000
     2  H    1.471159   0.000000
     3  H    1.471168   2.436779   0.000000
     4  H    1.471127   2.436907   2.438841   0.000000
     5  O    1.720295   2.575726   2.565541   2.565121   0.000000
     6  P    3.324248   4.017130   4.003929   4.003360   1.603953
     7  O    4.329521   4.556731   5.136943   5.117071   2.745758
     8  Cl   4.390658   5.355469   5.184450   4.302142   3.029926
     9  Cl   4.390508   5.327505   4.297430   5.216993   3.029504
                    6          7          8          9
     6  P    0.000000
     7  O    1.557725   0.000000
     8  Cl   2.257044   3.218785   0.000000
     9  Cl   2.256436   3.218496   3.511299   0.000000
 Symmetry turned off by external request.
 Stoichiometry    Cl2H3O2PSi
 Framework group  C1[X(Cl2H3O2PSi)]
 Deg. of freedom    21
 Full point group                 C1      NOp   1
 Rotational constants (GHZ):           1.5399243           1.0103685           0.8296576
 Standard basis: 6-311G(3d2f,3p2d) (5D, 7F)
   128 basis functions,   242 primitive gaussians,   128 cartesian basis functions
    41 alpha electrons       41 beta electrons
       nuclear repulsion energy       527.2385797425 Hartrees.



 Warning!  P  atom    6 may be hypervalent but has no d functions.



 NAtoms=    9 NActive=    9 NUniq=    9 SFac= 1.00D+00 NAtFMM=   60 NAOKFM=F Big=F
 Integral buffers will be    131072 words long.
 Raffenetti 2 integral format.
 Two-electron integral symmetry is turned off.
 One-electron integrals computed using PRISM.
 NBasis=   128 RedAO= T EigKep=  1.25D-02  NBF=   128
 NBsUse=   128 1.00D-06 EigRej= -1.00D+00 NBFU=   128
 Initial guess from the checkpoint file:  "H3SiOPOCl2_B3LYP_6-311g.chk"
 B after Tr=    -0.016212   -0.002056   -0.022599
         Rot=    0.999994   -0.002780   -0.000760    0.001935 Ang=  -0.40 deg.
 ExpMin= 6.54D-02 ExpMax= 1.06D+05 ExpMxC= 3.62D+03 IAcc=2 IRadAn=         4 AccDes= 0.00D+00
 Harris functional with IExCor=  402 and IRadAn=       4 diagonalized for initial guess.
 HarFok:  IExCor=  402 AccDes= 0.00D+00 IRadAn=         4 IDoV= 1 UseB2=F ITyADJ=14
 ICtDFT=  3500011 ScaDFX=  1.000000  1.000000  1.000000  1.000000
 FoFCou: FMM=F IPFlag=           0 FMFlag=      100000 FMFlg1=           0
         NFxFlg=           0 DoJE=T BraDBF=F KetDBF=T FulRan=T
         wScrn=  0.000000 ICntrl=       500 IOpCl=  0 I1Cent=   200000004 NGrid=           0
         NMat0=    1 NMatS0=      1 NMatT0=    0 NMatD0=    1 NMtDS0=    0 NMtDT0=    0
 Symmetry not used in FoFCou.
 Keep R1 ints in memory in canonical form, NReq=56933861.
 Requested convergence on RMS density matrix=1.00D-08 within 128 cycles.
 Requested convergence on MAX density matrix=1.00D-06.
 Requested convergence on             energy=1.00D-06.
 No special actions if energy rises.
 Integral accuracy reduced to 1.0D-05 until final iterations.
 Initial convergence to 1.0D-05 achieved.  Increase integral accuracy.
 SCF Done:  E(RB3LYP) =  -1703.54692233     A.U. after   12 cycles
            NFock= 12  Conv=0.87D-08     -V/T= 2.0022
 Calling FoFJK, ICntrl=      2127 FMM=F ISym2X=0 I1Cent= 0 IOpClX= 0 NMat=1 NMatS=1 NMatT=0.
 -------------------------------------------------------------------
 Center     Atomic                   Forces (Hartrees/Bohr)
 Number     Number              X              Y              Z
 -------------------------------------------------------------------
      1       14          -0.000206468    0.000097091   -0.000250748
      2        1           0.000035526    0.000511293    0.000362457
      3        1          -0.000058002    0.000019432    0.000044889
      4        1           0.000039347    0.000055068   -0.000022359
      5        8           0.000169470   -0.001161286   -0.000428002
      6       15          -0.002194336    0.004987580   -0.000661057
      7        8          -0.000284106   -0.000715991   -0.000894773
      8       17           0.003806982   -0.001048980   -0.000577765
      9       17          -0.001308413   -0.002744207    0.002427358
 -------------------------------------------------------------------
 Cartesian Forces:  Max     0.004987580 RMS     0.001547570

 GradGradGradGradGradGradGradGradGradGradGradGradGradGradGradGradGradGrad
 Berny optimization.
 Using GEDIIS/GDIIS optimizer.
 FormGI is forming the generalized inverse of G from B-inverse, IUseBI=4.
 Internal  Forces:  Max     0.003979036 RMS     0.001193494
 Search for a local minimum.
 Step number  10 out of a maximum of  100
 All quantities printed in internal units (Hartrees-Bohrs-Radians)
 Mixed Optimization -- RFO/linear search
 Update second derivatives using D2CorX and points    6    7    8    9   10
 DE= -1.28D-04 DEPred=-2.49D-04 R= 5.12D-01
 TightC=F SS=  1.41D+00  RLast= 2.25D-01 DXNew= 1.2365D+00 6.7598D-01
 Trust test= 5.12D-01 RLast= 2.25D-01 DXMaxT set to 7.35D-01
 ITU=  1  1  1  1  1  1  1  0  1  0
 Use linear search instead of GDIIS.
     Eigenvalues ---    0.00056   0.01511   0.01883   0.10756   0.10927
     Eigenvalues ---    0.14122   0.15067   0.16000   0.16079   0.16930
     Eigenvalues ---    0.18221   0.18253   0.18273   0.18800   0.24451
     Eigenvalues ---    0.24998   0.25015   0.27175   0.30387   0.42890
     Eigenvalues ---    0.53174
 RFO step:  Lambda=-1.16200861D-04 EMin= 5.60254425D-04
 Quartic linear search produced a step of  2.00000.
 Iteration  1 RMS(Cart)=  0.00388247 RMS(Int)=  1.40743543
 Iteration  2 RMS(Cart)=  0.00250026 RMS(Int)=  1.37904750
 Iteration  3 RMS(Cart)=  0.00232845 RMS(Int)=  0.10047989
 Iteration  4 RMS(Cart)=  0.00251016 RMS(Int)=  1.36806416
 Iteration  5 RMS(Cart)=  0.00232817 RMS(Int)=  0.11095905
 Iteration  6 RMS(Cart)=  0.00248987 RMS(Int)=  1.35887629
 Iteration  7 RMS(Cart)=  0.00233005 RMS(Int)=  0.11971439
 Iteration  8 RMS(Cart)=  0.00247294 RMS(Int)=  1.35110893
 Iteration  9 RMS(Cart)=  0.00233206 RMS(Int)=  0.12710364
 Iteration 10 RMS(Cart)=  0.00245906 RMS(Int)=  1.34450372
 Iteration 11 RMS(Cart)=  0.00233521 RMS(Int)=  0.13337238
 Iteration 12 RMS(Cart)=  0.00244707 RMS(Int)=  1.33885748
 Iteration 13 RMS(Cart)=  0.00233862 RMS(Int)=  0.13872171
 Iteration 14 RMS(Cart)=  0.00243688 RMS(Int)=  1.33400637
 Iteration 15 RMS(Cart)=  0.00234136 RMS(Int)=  0.14331003
 Iteration 16 RMS(Cart)=  0.00242836 RMS(Int)=  1.32982913
 Iteration 17 RMS(Cart)=  0.00234428 RMS(Int)=  0.14725380
 Iteration 18 RMS(Cart)=  0.00242204 RMS(Int)=  1.32622615
 Iteration 19 RMS(Cart)=  0.00234792 RMS(Int)=  0.15064461
 Iteration 20 RMS(Cart)=  0.00241613 RMS(Int)=  1.32312504
 Iteration 21 RMS(Cart)=  0.00235078 RMS(Int)=  0.15355567
 Iteration 22 RMS(Cart)=  0.00241000 RMS(Int)=  1.32045148
 Iteration 23 RMS(Cart)=  0.00235449 RMS(Int)=  0.15607157
 Iteration 24 RMS(Cart)=  0.00240619 RMS(Int)=  1.31812305
 Iteration 25 RMS(Cart)=  0.00235567 RMS(Int)=  0.15825708
 Iteration 26 RMS(Cart)=  0.00240243 RMS(Int)=  1.31611037
 Iteration 27 RMS(Cart)=  0.00235809 RMS(Int)=  0.16013886
 Iteration 28 RMS(Cart)=  0.00239856 RMS(Int)=  1.31437198
 Iteration 29 RMS(Cart)=  0.00236006 RMS(Int)=  0.16176677
 Iteration 30 RMS(Cart)=  0.00239626 RMS(Int)=  1.31286670
 Iteration 31 RMS(Cart)=  0.00236154 RMS(Int)=  0.16316888
 Iteration 32 RMS(Cart)=  0.00239350 RMS(Int)=  1.31157406
 Iteration 33 RMS(Cart)=  0.00236318 RMS(Int)=  0.16437168
 Iteration 34 RMS(Cart)=  0.00239136 RMS(Int)=  1.31046373
 Iteration 35 RMS(Cart)=  0.00236468 RMS(Int)=  0.16540323
 Iteration 36 RMS(Cart)=  0.00238945 RMS(Int)=  1.30951093
 Iteration 37 RMS(Cart)=  0.00236603 RMS(Int)=  0.16628781
 Iteration 38 RMS(Cart)=  0.00238778 RMS(Int)=  1.30869302
 Iteration 39 RMS(Cart)=  0.00236732 RMS(Int)=  0.16704735
 Iteration 40 RMS(Cart)=  0.00238633 RMS(Int)=  1.30798894
 Iteration 41 RMS(Cart)=  0.00236836 RMS(Int)=  0.16770167
 Iteration 42 RMS(Cart)=  0.00238512 RMS(Int)=  1.30738192
 Iteration 43 RMS(Cart)=  0.00236929 RMS(Int)=  0.16826546
 Iteration 44 RMS(Cart)=  0.00238403 RMS(Int)=  1.30685847
 Iteration 45 RMS(Cart)=  0.00237013 RMS(Int)=  0.16875186
 Iteration 46 RMS(Cart)=  0.00238310 RMS(Int)=  1.30640626
 Iteration 47 RMS(Cart)=  0.00237087 RMS(Int)=  0.16917228
 Iteration 48 RMS(Cart)=  0.00238229 RMS(Int)=  1.30601493
 Iteration 49 RMS(Cart)=  0.00237152 RMS(Int)=  0.16953629
 Iteration 50 RMS(Cart)=  0.00238159 RMS(Int)=  1.30567572
 Iteration 51 RMS(Cart)=  0.00237210 RMS(Int)=  0.16985199
 Iteration 52 RMS(Cart)=  0.00238097 RMS(Int)=  1.30538121
 Iteration 53 RMS(Cart)=  0.00237260 RMS(Int)=  0.17012627
 Iteration 54 RMS(Cart)=  0.00238044 RMS(Int)=  1.30512508
 Iteration 55 RMS(Cart)=  0.00237305 RMS(Int)=  0.17036498
 Iteration 56 RMS(Cart)=  0.00237997 RMS(Int)=  1.30490193
 Iteration 57 RMS(Cart)=  0.00237344 RMS(Int)=  0.17057311
 Iteration 58 RMS(Cart)=  0.00237956 RMS(Int)=  1.30470714
 Iteration 59 RMS(Cart)=  0.00237378 RMS(Int)=  0.17075494
 Iteration 60 RMS(Cart)=  0.00237920 RMS(Int)=  1.30453680
 Iteration 61 RMS(Cart)=  0.00237409 RMS(Int)=  0.17091405
 Iteration 62 RMS(Cart)=  0.00237888 RMS(Int)=  1.30438760
 Iteration 63 RMS(Cart)=  0.00237436 RMS(Int)=  0.17105358
 Iteration 64 RMS(Cart)=  0.00237861 RMS(Int)=  1.30425656
 Iteration 65 RMS(Cart)=  0.00237460 RMS(Int)=  0.17117625
 Iteration 66 RMS(Cart)=  0.00237836 RMS(Int)=  1.30414122
 Iteration 67 RMS(Cart)=  0.00237481 RMS(Int)=  0.17128440
 Iteration 68 RMS(Cart)=  0.00237815 RMS(Int)=  1.30403936
 Iteration 69 RMS(Cart)=  0.00237500 RMS(Int)=  0.17138001
 Iteration 70 RMS(Cart)=  0.00237796 RMS(Int)=  1.30394918
 Iteration 71 RMS(Cart)=  0.00237516 RMS(Int)=  0.17146483
 Iteration 72 RMS(Cart)=  0.00237779 RMS(Int)=  1.30386903
 Iteration 73 RMS(Cart)=  0.00237531 RMS(Int)=  0.17154030
 Iteration 74 RMS(Cart)=  0.00237764 RMS(Int)=  1.30379758
 Iteration 75 RMS(Cart)=  0.00237544 RMS(Int)=  0.17160774
 Iteration 76 RMS(Cart)=  0.00237751 RMS(Int)=  1.30373361
 Iteration 77 RMS(Cart)=  0.00237555 RMS(Int)=  0.17166822
 Iteration 78 RMS(Cart)=  0.00237740 RMS(Int)=  1.30367613
 Iteration 79 RMS(Cart)=  0.00237565 RMS(Int)=  0.17172269
 Iteration 80 RMS(Cart)=  0.00237730 RMS(Int)=  1.30362422
 Iteration 81 RMS(Cart)=  0.00237574 RMS(Int)=  0.17177198
 Iteration 82 RMS(Cart)=  0.00237721 RMS(Int)=  1.30357715
 Iteration 83 RMS(Cart)=  0.00237582 RMS(Int)=  0.17181680
 Iteration 84 RMS(Cart)=  0.00237713 RMS(Int)=  1.30353425
 Iteration 85 RMS(Cart)=  0.00237589 RMS(Int)=  0.17185774
 Iteration 86 RMS(Cart)=  0.00237706 RMS(Int)=  1.30349496
 Iteration 87 RMS(Cart)=  0.00237596 RMS(Int)=  0.17189532
 Iteration 88 RMS(Cart)=  0.00237699 RMS(Int)=  1.30345880
 Iteration 89 RMS(Cart)=  0.00237601 RMS(Int)=  0.17193001
 Iteration 90 RMS(Cart)=  0.00237694 RMS(Int)=  1.30342534
 Iteration 91 RMS(Cart)=  0.00237606 RMS(Int)=  0.17196219
 Iteration 92 RMS(Cart)=  0.00237689 RMS(Int)=  1.30339422
 Iteration 93 RMS(Cart)=  0.00237611 RMS(Int)=  0.17199220
 Iteration 94 RMS(Cart)=  0.00237684 RMS(Int)=  1.30336511
 Iteration 95 RMS(Cart)=  0.00237615 RMS(Int)=  0.17202034
 Iteration 96 RMS(Cart)=  0.00237681 RMS(Int)=  1.30333775
 Iteration 97 RMS(Cart)=  0.00237618 RMS(Int)=  0.17204686
 Iteration 98 RMS(Cart)=  0.00237677 RMS(Int)=  1.30331189
 Iteration 99 RMS(Cart)=  0.00237621 RMS(Int)=  0.17207199
 Iteration100 RMS(Cart)=  0.00237674 RMS(Int)=  1.30328735
 New curvilinear step not converged.
 ITry= 1 IFail=1 DXMaxC= 2.53D-02 DCOld= 1.00D+10 DXMaxT= 7.35D-01 DXLimC= 3.00D+00 Rises=F
 Iteration  1 RMS(Cart)=  0.00412838 RMS(Int)=  1.40635596
 Iteration  2 RMS(Cart)=  0.00272282 RMS(Int)=  1.37891525
 Iteration  3 RMS(Cart)=  0.00253470 RMS(Int)=  0.10055193
 Iteration  4 RMS(Cart)=  0.00268087 RMS(Int)=  1.36878159
 Iteration  5 RMS(Cart)=  0.00253507 RMS(Int)=  0.11019391
 Iteration  6 RMS(Cart)=  0.00266410 RMS(Int)=  1.36025690
 Iteration  7 RMS(Cart)=  0.00253513 RMS(Int)=  0.11829682
 Iteration  8 RMS(Cart)=  0.00265032 RMS(Int)=  1.35303704
 Iteration  9 RMS(Cart)=  0.00253533 RMS(Int)=  0.12514380
 Iteration 10 RMS(Cart)=  0.00263927 RMS(Int)=  1.34690440
 Iteration 11 RMS(Cart)=  0.00253930 RMS(Int)=  0.13094377
 Iteration 12 RMS(Cart)=  0.00262971 RMS(Int)=  1.34166779
 Iteration 13 RMS(Cart)=  0.00254138 RMS(Int)=  0.13588748
 Iteration 14 RMS(Cart)=  0.00262072 RMS(Int)=  1.33717975
 Iteration 15 RMS(Cart)=  0.00254370 RMS(Int)=  0.14011937
 Iteration 16 RMS(Cart)=  0.00261526 RMS(Int)=  1.33333045
 Iteration 17 RMS(Cart)=  0.00254626 RMS(Int)=  0.14373159
 Iteration 18 RMS(Cart)=  0.00259128 RMS(Int)=  1.32991500
 Iteration 19 RMS(Cart)=  0.00252897 RMS(Int)=  0.14700682
 Iteration 20 RMS(Cart)=  0.00258206 RMS(Int)=  1.32690884
 Iteration 21 RMS(Cart)=  0.00256231 RMS(Int)=  0.14995049
 Iteration 22 RMS(Cart)=  0.00259774 RMS(Int)=  1.32390408
 Iteration 23 RMS(Cart)=  0.00253980 RMS(Int)=  0.15282556
 Iteration 24 RMS(Cart)=  0.00259202 RMS(Int)=  1.32134274
 Iteration 25 RMS(Cart)=  0.00255520 RMS(Int)=  0.15522532
 Iteration 26 RMS(Cart)=  0.00259507 RMS(Int)=  1.31909675
 Iteration 27 RMS(Cart)=  0.00255712 RMS(Int)=  0.15733249
 Iteration 28 RMS(Cart)=  0.00259146 RMS(Int)=  1.31714266
 Iteration 29 RMS(Cart)=  0.00255882 RMS(Int)=  0.15917210
 Iteration 30 RMS(Cart)=  0.00259119 RMS(Int)=  1.31544282
 Iteration 31 RMS(Cart)=  0.00256049 RMS(Int)=  0.16075146
 Iteration 32 RMS(Cart)=  0.00258771 RMS(Int)=  1.31398556
 Iteration 33 RMS(Cart)=  0.00256190 RMS(Int)=  0.16211454
 Iteration 34 RMS(Cart)=  0.00258594 RMS(Int)=  1.31272040
 Iteration 35 RMS(Cart)=  0.00256317 RMS(Int)=  0.16329666
 Iteration 36 RMS(Cart)=  0.00258493 RMS(Int)=  1.31162550
 Iteration 37 RMS(Cart)=  0.00256434 RMS(Int)=  0.16431389
 Iteration 38 RMS(Cart)=  0.00258296 RMS(Int)=  1.31068245
 Iteration 39 RMS(Cart)=  0.00256535 RMS(Int)=  0.16519406
 Iteration 40 RMS(Cart)=  0.00258179 RMS(Int)=  1.30986335
 Iteration 41 RMS(Cart)=  0.00256623 RMS(Int)=  0.16595812
 Iteration 42 RMS(Cart)=  0.00258076 RMS(Int)=  1.30915190
 Iteration 43 RMS(Cart)=  0.00256704 RMS(Int)=  0.16662146
 Iteration 44 RMS(Cart)=  0.00257990 RMS(Int)=  1.30853413
 Iteration 45 RMS(Cart)=  0.00256775 RMS(Int)=  0.16719686
 Iteration 46 RMS(Cart)=  0.00257909 RMS(Int)=  1.30799806
 Iteration 47 RMS(Cart)=  0.00256838 RMS(Int)=  0.16769625
 Iteration 48 RMS(Cart)=  0.00257840 RMS(Int)=  1.30753248
 Iteration 49 RMS(Cart)=  0.00256893 RMS(Int)=  0.16812984
 Iteration 50 RMS(Cart)=  0.00257780 RMS(Int)=  1.30712811
 Iteration 51 RMS(Cart)=  0.00256943 RMS(Int)=  0.16850633
 Iteration 52 RMS(Cart)=  0.00257728 RMS(Int)=  1.30677688
 Iteration 53 RMS(Cart)=  0.00256987 RMS(Int)=  0.16883327
 Iteration 54 RMS(Cart)=  0.00257682 RMS(Int)=  1.30647180
 Iteration 55 RMS(Cart)=  0.00257025 RMS(Int)=  0.16911722
 Iteration 56 RMS(Cart)=  0.00257641 RMS(Int)=  1.30620677
 Iteration 57 RMS(Cart)=  0.00257059 RMS(Int)=  0.16936384
 Iteration 58 RMS(Cart)=  0.00257605 RMS(Int)=  1.30597653
 Iteration 59 RMS(Cart)=  0.00257090 RMS(Int)=  0.16957808
 Iteration 60 RMS(Cart)=  0.00257574 RMS(Int)=  1.30577648
 Iteration 61 RMS(Cart)=  0.00257117 RMS(Int)=  0.16976420
 Iteration 62 RMS(Cart)=  0.00257546 RMS(Int)=  1.30560265
 Iteration 63 RMS(Cart)=  0.00257140 RMS(Int)=  0.16992592
 Iteration 64 RMS(Cart)=  0.00257522 RMS(Int)=  1.30545158
 Iteration 65 RMS(Cart)=  0.00257161 RMS(Int)=  0.17006646
 Iteration 66 RMS(Cart)=  0.00257500 RMS(Int)=  1.30532028
 Iteration 67 RMS(Cart)=  0.00257180 RMS(Int)=  0.17018861
 Iteration 68 RMS(Cart)=  0.00257481 RMS(Int)=  1.30520613
 Iteration 69 RMS(Cart)=  0.00257196 RMS(Int)=  0.17029480
 Iteration 70 RMS(Cart)=  0.00257464 RMS(Int)=  1.30510688
 Iteration 71 RMS(Cart)=  0.00257211 RMS(Int)=  0.17038714
 Iteration 72 RMS(Cart)=  0.00257449 RMS(Int)=  1.30502057
 Iteration 73 RMS(Cart)=  0.00257224 RMS(Int)=  0.17046745
 Iteration 74 RMS(Cart)=  0.00257436 RMS(Int)=  1.30494549
 Iteration 75 RMS(Cart)=  0.00257235 RMS(Int)=  0.17053731
 Iteration 76 RMS(Cart)=  0.00257424 RMS(Int)=  1.30488016
 Iteration 77 RMS(Cart)=  0.00257246 RMS(Int)=  0.17059811
 Iteration 78 RMS(Cart)=  0.00257414 RMS(Int)=  1.30482329
 Iteration 79 RMS(Cart)=  0.00257255 RMS(Int)=  0.17065104
 Iteration 80 RMS(Cart)=  0.00257405 RMS(Int)=  1.30477377
 Iteration 81 RMS(Cart)=  0.00257263 RMS(Int)=  0.17069714
 Iteration 82 RMS(Cart)=  0.00257397 RMS(Int)=  1.30473063
 Iteration 83 RMS(Cart)=  0.00257270 RMS(Int)=  0.17073730
 Iteration 84 RMS(Cart)=  0.00257389 RMS(Int)=  1.30469303
 Iteration 85 RMS(Cart)=  0.00257276 RMS(Int)=  0.17077232
 Iteration 86 RMS(Cart)=  0.00257383 RMS(Int)=  1.30466024
 Iteration 87 RMS(Cart)=  0.00257282 RMS(Int)=  0.17080287
 Iteration 88 RMS(Cart)=  0.00257377 RMS(Int)=  1.30463163
 Iteration 89 RMS(Cart)=  0.00257287 RMS(Int)=  0.17082953
 Iteration 90 RMS(Cart)=  0.00257372 RMS(Int)=  1.30460665
 Iteration 91 RMS(Cart)=  0.00257291 RMS(Int)=  0.17085282
 Iteration 92 RMS(Cart)=  0.00257368 RMS(Int)=  1.30458481
 Iteration 93 RMS(Cart)=  0.00257295 RMS(Int)=  0.17087319
 Iteration 94 RMS(Cart)=  0.00257364 RMS(Int)=  1.30456570
 Iteration 95 RMS(Cart)=  0.00257299 RMS(Int)=  0.17089103
 Iteration 96 RMS(Cart)=  0.00257360 RMS(Int)=  1.30454897
 Iteration 97 RMS(Cart)=  0.00257302 RMS(Int)=  0.17090665
 Iteration 98 RMS(Cart)=  0.00257357 RMS(Int)=  1.30453429
 Iteration 99 RMS(Cart)=  0.00257305 RMS(Int)=  0.17092037
 Iteration100 RMS(Cart)=  0.00257354 RMS(Int)=  1.30452140
 New curvilinear step not converged.
 ITry= 2 IFail=1 DXMaxC= 2.41D-02 DCOld= 1.00D+10 DXMaxT= 7.35D-01 DXLimC= 3.00D+00 Rises=F
 Iteration  1 RMS(Cart)=  0.00437728 RMS(Int)=  1.40526557
 Iteration  2 RMS(Cart)=  0.00294552 RMS(Int)=  1.37859371
 Iteration  3 RMS(Cart)=  0.00274042 RMS(Int)=  0.10083524
 Iteration  4 RMS(Cart)=  0.00285525 RMS(Int)=  1.36919388
 Iteration  5 RMS(Cart)=  0.00274556 RMS(Int)=  0.10975011
 Iteration  6 RMS(Cart)=  0.00284182 RMS(Int)=  1.36126201
 Iteration  7 RMS(Cart)=  0.00274529 RMS(Int)=  0.11727172
 Iteration  8 RMS(Cart)=  0.00283066 RMS(Int)=  1.35451190
 Iteration  9 RMS(Cart)=  0.00274565 RMS(Int)=  0.12366419
 Iteration 10 RMS(Cart)=  0.00282133 RMS(Int)=  1.34873692
 Iteration 11 RMS(Cart)=  0.00274150 RMS(Int)=  0.12911314
 Iteration 12 RMS(Cart)=  0.00281334 RMS(Int)=  1.34384981
 Iteration 13 RMS(Cart)=  0.00274735 RMS(Int)=  0.13370084
 Iteration 14 RMS(Cart)=  0.00280699 RMS(Int)=  1.33968074
 Iteration 15 RMS(Cart)=  0.00275010 RMS(Int)=  0.13762631
 Iteration 16 RMS(Cart)=  0.00280143 RMS(Int)=  1.33606977
 Iteration 17 RMS(Cart)=  0.00275113 RMS(Int)=  0.14102695
 Iteration 18 RMS(Cart)=  0.00279685 RMS(Int)=  1.33293954
 Iteration 19 RMS(Cart)=  0.00275274 RMS(Int)=  0.14396913
 Iteration 20 RMS(Cart)=  0.00279317 RMS(Int)=  1.33022689
 Iteration 21 RMS(Cart)=  0.00275415 RMS(Int)=  0.14651398
 Iteration 22 RMS(Cart)=  0.00278974 RMS(Int)=  1.32787544
 Iteration 23 RMS(Cart)=  0.00275569 RMS(Int)=  0.14871915
 Iteration 24 RMS(Cart)=  0.00278696 RMS(Int)=  1.32583129
 Iteration 25 RMS(Cart)=  0.00275689 RMS(Int)=  0.15063518
 Iteration 26 RMS(Cart)=  0.00278454 RMS(Int)=  1.32405240
 Iteration 27 RMS(Cart)=  0.00275803 RMS(Int)=  0.15230141
 Iteration 28 RMS(Cart)=  0.00278237 RMS(Int)=  1.32250249
 Iteration 29 RMS(Cart)=  0.00275900 RMS(Int)=  0.15375295
 Iteration 30 RMS(Cart)=  0.00278082 RMS(Int)=  1.32115154
 Iteration 31 RMS(Cart)=  0.00276002 RMS(Int)=  0.15501600
 Iteration 32 RMS(Cart)=  0.00277944 RMS(Int)=  1.31997588
 Iteration 33 RMS(Cart)=  0.00276042 RMS(Int)=  0.15611232
 Iteration 34 RMS(Cart)=  0.00277815 RMS(Int)=  1.31895870
 Iteration 35 RMS(Cart)=  0.00276178 RMS(Int)=  0.15705953
 Iteration 36 RMS(Cart)=  0.00277700 RMS(Int)=  1.31807644
 Iteration 37 RMS(Cart)=  0.00276254 RMS(Int)=  0.15788211
 Iteration 38 RMS(Cart)=  0.00277600 RMS(Int)=  1.31730962
 Iteration 39 RMS(Cart)=  0.00276318 RMS(Int)=  0.15859679
 Iteration 40 RMS(Cart)=  0.00277512 RMS(Int)=  1.31664311
 Iteration 41 RMS(Cart)=  0.00276375 RMS(Int)=  0.15921773
 Iteration 42 RMS(Cart)=  0.00277438 RMS(Int)=  1.31606389
 Iteration 43 RMS(Cart)=  0.00276429 RMS(Int)=  0.15975699
 Iteration 44 RMS(Cart)=  0.00277372 RMS(Int)=  1.31556070
 Iteration 45 RMS(Cart)=  0.00276474 RMS(Int)=  0.16022521
 Iteration 46 RMS(Cart)=  0.00277315 RMS(Int)=  1.31512392
 Iteration 47 RMS(Cart)=  0.00276505 RMS(Int)=  0.16063099
 Iteration 48 RMS(Cart)=  0.00277265 RMS(Int)=  1.31474621
 Iteration 49 RMS(Cart)=  0.00276556 RMS(Int)=  0.16098156
 Iteration 50 RMS(Cart)=  0.00277220 RMS(Int)=  1.31441926
 Iteration 51 RMS(Cart)=  0.00276590 RMS(Int)=  0.16128521
 Iteration 52 RMS(Cart)=  0.00277182 RMS(Int)=  1.31413612
 Iteration 53 RMS(Cart)=  0.00276620 RMS(Int)=  0.16154792
 Iteration 54 RMS(Cart)=  0.00277147 RMS(Int)=  1.31389128
 Iteration 55 RMS(Cart)=  0.00276647 RMS(Int)=  0.16177499
 Iteration 56 RMS(Cart)=  0.00277116 RMS(Int)=  1.31367969
 Iteration 57 RMS(Cart)=  0.00276671 RMS(Int)=  0.16197110
 Iteration 58 RMS(Cart)=  0.00277089 RMS(Int)=  1.31349701
 Iteration 59 RMS(Cart)=  0.00276693 RMS(Int)=  0.16214031
 Iteration 60 RMS(Cart)=  0.00277065 RMS(Int)=  1.31333946
 Iteration 61 RMS(Cart)=  0.00276712 RMS(Int)=  0.16228614
 Iteration 62 RMS(Cart)=  0.00277044 RMS(Int)=  1.31320374
 Iteration 63 RMS(Cart)=  0.00276729 RMS(Int)=  0.16241167
 Iteration 64 RMS(Cart)=  0.00277026 RMS(Int)=  1.31308700
 Iteration 65 RMS(Cart)=  0.00276744 RMS(Int)=  0.16251954
 Iteration 66 RMS(Cart)=  0.00277009 RMS(Int)=  1.31298676
 Iteration 67 RMS(Cart)=  0.00276757 RMS(Int)=  0.16261208
 Iteration 68 RMS(Cart)=  0.00276994 RMS(Int)=  1.31290086
 Iteration 69 RMS(Cart)=  0.00276769 RMS(Int)=  0.16269128
 Iteration 70 RMS(Cart)=  0.00276981 RMS(Int)=  1.31282741
 Iteration 71 RMS(Cart)=  0.00276780 RMS(Int)=  0.16275891
 Iteration 72 RMS(Cart)=  0.00276970 RMS(Int)=  1.31276478
 Iteration 73 RMS(Cart)=  0.00276789 RMS(Int)=  0.16281648
 Iteration 74 RMS(Cart)=  0.00276959 RMS(Int)=  1.31271156
 Iteration 75 RMS(Cart)=  0.00276798 RMS(Int)=  0.16286531
 Iteration 76 RMS(Cart)=  0.00276950 RMS(Int)=  1.31266652
 Iteration 77 RMS(Cart)=  0.00276805 RMS(Int)=  0.16290654
 Iteration 78 RMS(Cart)=  0.00276942 RMS(Int)=  1.31262857
 Iteration 79 RMS(Cart)=  0.00276812 RMS(Int)=  0.16294118
 Iteration 80 RMS(Cart)=  0.00276935 RMS(Int)=  1.31259678
 Iteration 81 RMS(Cart)=  0.00276818 RMS(Int)=  0.16297009
 Iteration 82 RMS(Cart)=  0.00276928 RMS(Int)=  1.31257036
 Iteration 83 RMS(Cart)=  0.00276823 RMS(Int)=  0.16299402
 Iteration 84 RMS(Cart)=  0.00276922 RMS(Int)=  1.31254859
 Iteration 85 RMS(Cart)=  0.00276828 RMS(Int)=  0.16301363
 Iteration 86 RMS(Cart)=  0.00276917 RMS(Int)=  1.31253087
 Iteration 87 RMS(Cart)=  0.00276832 RMS(Int)=  0.16302948
 Iteration 88 RMS(Cart)=  0.00276912 RMS(Int)=  1.31251665
 Iteration 89 RMS(Cart)=  0.00276836 RMS(Int)=  0.16304207
 Iteration 90 RMS(Cart)=  0.00276908 RMS(Int)=  1.31250549
 Iteration 91 RMS(Cart)=  0.00276840 RMS(Int)=  0.16305182
 Iteration 92 RMS(Cart)=  0.00276904 RMS(Int)=  1.31249698
 Iteration 93 RMS(Cart)=  0.00276843 RMS(Int)=  0.16305911
 Iteration 94 RMS(Cart)=  0.00276901 RMS(Int)=  1.31249077
 Iteration 95 RMS(Cart)=  0.00276846 RMS(Int)=  0.16306427
 Iteration 96 RMS(Cart)=  0.00276898 RMS(Int)=  1.31248657
 Iteration 97 RMS(Cart)=  0.00276848 RMS(Int)=  0.16306756
 Iteration 98 RMS(Cart)=  0.00276895 RMS(Int)=  1.31248409
 Iteration 99 RMS(Cart)=  0.00276850 RMS(Int)=  0.16306924
 Iteration100 RMS(Cart)=  0.00276893 RMS(Int)=  1.31248313
 New curvilinear step not converged.
 ITry= 3 IFail=1 DXMaxC= 2.30D-02 DCOld= 1.00D+10 DXMaxT= 7.35D-01 DXLimC= 3.00D+00 Rises=F
 Iteration  1 RMS(Cart)=  0.00460718 RMS(Int)=  1.40416520
 Iteration  2 RMS(Cart)=  0.00317235 RMS(Int)=  1.37775717
 Iteration  3 RMS(Cart)=  0.00295517 RMS(Int)=  0.10172961
 Iteration  4 RMS(Cart)=  0.00303106 RMS(Int)=  1.36857144
 Iteration  5 RMS(Cart)=  0.00295328 RMS(Int)=  0.11043963
 Iteration  6 RMS(Cart)=  0.00301975 RMS(Int)=  1.36080473
 Iteration  7 RMS(Cart)=  0.00295190 RMS(Int)=  0.11779801
 Iteration  8 RMS(Cart)=  0.00301109 RMS(Int)=  1.35419041
 Iteration  9 RMS(Cart)=  0.00295155 RMS(Int)=  0.12405659
 Iteration 10 RMS(Cart)=  0.00300392 RMS(Int)=  1.34852615
 Iteration 11 RMS(Cart)=  0.00295158 RMS(Int)=  0.12940868
 Iteration 12 RMS(Cart)=  0.00299818 RMS(Int)=  1.34365665
 Iteration 13 RMS(Cart)=  0.00295203 RMS(Int)=  0.13400200
 Iteration 14 RMS(Cart)=  0.00299334 RMS(Int)=  1.33945923
 Iteration 15 RMS(Cart)=  0.00295267 RMS(Int)=  0.13795525
 Iteration 16 RMS(Cart)=  0.00298926 RMS(Int)=  1.33583364
 Iteration 17 RMS(Cart)=  0.00295446 RMS(Int)=  0.14136606
 Iteration 18 RMS(Cart)=  0.00298588 RMS(Int)=  1.33269055
 Iteration 19 RMS(Cart)=  0.00295409 RMS(Int)=  0.14431997
 Iteration 20 RMS(Cart)=  0.00298304 RMS(Int)=  1.32996640
 Iteration 21 RMS(Cart)=  0.00295494 RMS(Int)=  0.14687494
 Iteration 22 RMS(Cart)=  0.00298044 RMS(Int)=  1.32760373
 Iteration 23 RMS(Cart)=  0.00295578 RMS(Int)=  0.14909023
 Iteration 24 RMS(Cart)=  0.00297842 RMS(Int)=  1.32555084
 Iteration 25 RMS(Cart)=  0.00295657 RMS(Int)=  0.15101234
 Iteration 26 RMS(Cart)=  0.00297610 RMS(Int)=  1.32376316
 Iteration 27 RMS(Cart)=  0.00295729 RMS(Int)=  0.15269066
 Iteration 28 RMS(Cart)=  0.00297524 RMS(Int)=  1.32220020
 Iteration 29 RMS(Cart)=  0.00295801 RMS(Int)=  0.15415197
 Iteration 30 RMS(Cart)=  0.00297406 RMS(Int)=  1.32084151
 Iteration 31 RMS(Cart)=  0.00295867 RMS(Int)=  0.15542018
 Iteration 32 RMS(Cart)=  0.00297294 RMS(Int)=  1.31966189
 Iteration 33 RMS(Cart)=  0.00295927 RMS(Int)=  0.15652040
 Iteration 34 RMS(Cart)=  0.00297196 RMS(Int)=  1.31863786
 Iteration 35 RMS(Cart)=  0.00295985 RMS(Int)=  0.15747488
 Iteration 36 RMS(Cart)=  0.00297112 RMS(Int)=  1.31774872
 Iteration 37 RMS(Cart)=  0.00296035 RMS(Int)=  0.15830324
 Iteration 38 RMS(Cart)=  0.00297039 RMS(Int)=  1.31697664
 Iteration 39 RMS(Cart)=  0.00296060 RMS(Int)=  0.15902164
 Iteration 40 RMS(Cart)=  0.00296974 RMS(Int)=  1.31630786
 Iteration 41 RMS(Cart)=  0.00296124 RMS(Int)=  0.15964361
 Iteration 42 RMS(Cart)=  0.00296917 RMS(Int)=  1.31572754
 Iteration 43 RMS(Cart)=  0.00296162 RMS(Int)=  0.16018359
 Iteration 44 RMS(Cart)=  0.00296869 RMS(Int)=  1.31522350
 Iteration 45 RMS(Cart)=  0.00296203 RMS(Int)=  0.16065265
 Iteration 46 RMS(Cart)=  0.00296826 RMS(Int)=  1.31478509
 Iteration 47 RMS(Cart)=  0.00296225 RMS(Int)=  0.16106059
 Iteration 48 RMS(Cart)=  0.00296789 RMS(Int)=  1.31440404
 Iteration 49 RMS(Cart)=  0.00296252 RMS(Int)=  0.16141488
 Iteration 50 RMS(Cart)=  0.00296752 RMS(Int)=  1.31407296
 Iteration 51 RMS(Cart)=  0.00296277 RMS(Int)=  0.16172279
 Iteration 52 RMS(Cart)=  0.00296723 RMS(Int)=  1.31378507
 Iteration 53 RMS(Cart)=  0.00296298 RMS(Int)=  0.16199051
 Iteration 54 RMS(Cart)=  0.00296698 RMS(Int)=  1.31353470
 Iteration 55 RMS(Cart)=  0.00296317 RMS(Int)=  0.16222330
 Iteration 56 RMS(Cart)=  0.00296676 RMS(Int)=  1.31331696
 Iteration 57 RMS(Cart)=  0.00296334 RMS(Int)=  0.16242572
 Iteration 58 RMS(Cart)=  0.00296657 RMS(Int)=  1.31312760
 Iteration 59 RMS(Cart)=  0.00296350 RMS(Int)=  0.16260174
 Iteration 60 RMS(Cart)=  0.00296639 RMS(Int)=  1.31296293
 Iteration 61 RMS(Cart)=  0.00296363 RMS(Int)=  0.16275481
 Iteration 62 RMS(Cart)=  0.00296624 RMS(Int)=  1.31281969
 Iteration 63 RMS(Cart)=  0.00296376 RMS(Int)=  0.16288794
 Iteration 64 RMS(Cart)=  0.00296610 RMS(Int)=  1.31269510
 Iteration 65 RMS(Cart)=  0.00296387 RMS(Int)=  0.16300375
 Iteration 66 RMS(Cart)=  0.00296597 RMS(Int)=  1.31258670
 Iteration 67 RMS(Cart)=  0.00296397 RMS(Int)=  0.16310451
 Iteration 68 RMS(Cart)=  0.00296586 RMS(Int)=  1.31249236
 Iteration 69 RMS(Cart)=  0.00296406 RMS(Int)=  0.16319221
 Iteration 70 RMS(Cart)=  0.00296576 RMS(Int)=  1.31241024
 Iteration 71 RMS(Cart)=  0.00296414 RMS(Int)=  0.16326855
 Iteration 72 RMS(Cart)=  0.00296567 RMS(Int)=  1.31233873
 Iteration 73 RMS(Cart)=  0.00296421 RMS(Int)=  0.16333504
 Iteration 74 RMS(Cart)=  0.00296559 RMS(Int)=  1.31227644
 Iteration 75 RMS(Cart)=  0.00296427 RMS(Int)=  0.16339296
 Iteration 76 RMS(Cart)=  0.00296552 RMS(Int)=  1.31222217
 Iteration 77 RMS(Cart)=  0.00296433 RMS(Int)=  0.16344345
 Iteration 78 RMS(Cart)=  0.00296545 RMS(Int)=  1.31217484
 Iteration 79 RMS(Cart)=  0.00296438 RMS(Int)=  0.16348747
 Iteration 80 RMS(Cart)=  0.00296540 RMS(Int)=  1.31213356
 Iteration 81 RMS(Cart)=  0.00296443 RMS(Int)=  0.16352589
 Iteration 82 RMS(Cart)=  0.00296534 RMS(Int)=  1.31209753
 Iteration 83 RMS(Cart)=  0.00296447 RMS(Int)=  0.16355943
 Iteration 84 RMS(Cart)=  0.00296530 RMS(Int)=  1.31206606
 Iteration 85 RMS(Cart)=  0.00296451 RMS(Int)=  0.16358874
 Iteration 86 RMS(Cart)=  0.00296526 RMS(Int)=  1.31203854
 Iteration 87 RMS(Cart)=  0.00296454 RMS(Int)=  0.16361438
 Iteration 88 RMS(Cart)=  0.00296522 RMS(Int)=  1.31201447
 Iteration 89 RMS(Cart)=  0.00296457 RMS(Int)=  0.16363683
 Iteration 90 RMS(Cart)=  0.00296518 RMS(Int)=  1.31199337
 Iteration 91 RMS(Cart)=  0.00296460 RMS(Int)=  0.16365650
 Iteration 92 RMS(Cart)=  0.00296515 RMS(Int)=  1.31197488
 Iteration 93 RMS(Cart)=  0.00296462 RMS(Int)=  0.16367376
 Iteration 94 RMS(Cart)=  0.00296513 RMS(Int)=  1.31195863
 Iteration 95 RMS(Cart)=  0.00296464 RMS(Int)=  0.16368893
 Iteration 96 RMS(Cart)=  0.00296510 RMS(Int)=  1.31194434
 Iteration 97 RMS(Cart)=  0.00296466 RMS(Int)=  0.16370229
 Iteration 98 RMS(Cart)=  0.00296508 RMS(Int)=  1.31193175
 Iteration 99 RMS(Cart)=  0.00296468 RMS(Int)=  0.16371407
 Iteration100 RMS(Cart)=  0.00296506 RMS(Int)=  1.31192064
 New curvilinear step not converged.
 ITry= 4 IFail=1 DXMaxC= 2.18D-02 DCOld= 1.00D+10 DXMaxT= 7.35D-01 DXLimC= 3.00D+00 Rises=F
 Iteration  1 RMS(Cart)=  0.00487647 RMS(Int)=  1.40306203
 Iteration  2 RMS(Cart)=  0.00340017 RMS(Int)=  1.37741523
 Iteration  3 RMS(Cart)=  0.00316667 RMS(Int)=  0.10203277
 Iteration  4 RMS(Cart)=  0.00319934 RMS(Int)=  1.36895453
 Iteration  5 RMS(Cart)=  0.00316388 RMS(Int)=  0.11003882
 Iteration  6 RMS(Cart)=  0.00319618 RMS(Int)=  1.36175937
 Iteration  7 RMS(Cart)=  0.00316126 RMS(Int)=  0.11683751
 Iteration  8 RMS(Cart)=  0.00319022 RMS(Int)=  1.35561436
 Iteration  9 RMS(Cart)=  0.00315807 RMS(Int)=  0.12263554
 Iteration 10 RMS(Cart)=  0.00318529 RMS(Int)=  1.35035547
 Iteration 11 RMS(Cart)=  0.00315823 RMS(Int)=  0.12758905
 Iteration 12 RMS(Cart)=  0.00318138 RMS(Int)=  1.34583077
 Iteration 13 RMS(Cart)=  0.00315734 RMS(Int)=  0.13184772
 Iteration 14 RMS(Cart)=  0.00317825 RMS(Int)=  1.34192603
 Iteration 15 RMS(Cart)=  0.00315690 RMS(Int)=  0.13551751
 Iteration 16 RMS(Cart)=  0.00317562 RMS(Int)=  1.33855040
 Iteration 17 RMS(Cart)=  0.00315659 RMS(Int)=  0.13868579
 Iteration 18 RMS(Cart)=  0.00317392 RMS(Int)=  1.33563066
 Iteration 19 RMS(Cart)=  0.00315659 RMS(Int)=  0.14141992
 Iteration 20 RMS(Cart)=  0.00317166 RMS(Int)=  1.33310513
 Iteration 21 RMS(Cart)=  0.00315664 RMS(Int)=  0.14378422
 Iteration 22 RMS(Cart)=  0.00317016 RMS(Int)=  1.33091573
 Iteration 23 RMS(Cart)=  0.00315676 RMS(Int)=  0.14583160
 Iteration 24 RMS(Cart)=  0.00316889 RMS(Int)=  1.32901670
 Iteration 25 RMS(Cart)=  0.00315692 RMS(Int)=  0.14760577
 Iteration 26 RMS(Cart)=  0.00316782 RMS(Int)=  1.32736882
 Iteration 27 RMS(Cart)=  0.00315712 RMS(Int)=  0.14914398
 Iteration 28 RMS(Cart)=  0.00316692 RMS(Int)=  1.32593849
 Iteration 29 RMS(Cart)=  0.00315733 RMS(Int)=  0.15047802
 Iteration 30 RMS(Cart)=  0.00316615 RMS(Int)=  1.32469682
 Iteration 31 RMS(Cart)=  0.00315755 RMS(Int)=  0.15163527
 Iteration 32 RMS(Cart)=  0.00316547 RMS(Int)=  1.32361876
 Iteration 33 RMS(Cart)=  0.00315776 RMS(Int)=  0.15263947
 Iteration 34 RMS(Cart)=  0.00316491 RMS(Int)=  1.32268262
 Iteration 35 RMS(Cart)=  0.00315798 RMS(Int)=  0.15351096
 Iteration 36 RMS(Cart)=  0.00316444 RMS(Int)=  1.32186967
 Iteration 37 RMS(Cart)=  0.00315817 RMS(Int)=  0.15426740
 Iteration 38 RMS(Cart)=  0.00316395 RMS(Int)=  1.32116362
 Iteration 39 RMS(Cart)=  0.00315835 RMS(Int)=  0.15492426
 Iteration 40 RMS(Cart)=  0.00316357 RMS(Int)=  1.32055011
 Iteration 41 RMS(Cart)=  0.00315853 RMS(Int)=  0.15549487
 Iteration 42 RMS(Cart)=  0.00316325 RMS(Int)=  1.32001695
 Iteration 43 RMS(Cart)=  0.00315870 RMS(Int)=  0.15599056
 Iteration 44 RMS(Cart)=  0.00316298 RMS(Int)=  1.31955368
 Iteration 45 RMS(Cart)=  0.00315885 RMS(Int)=  0.15642107
 Iteration 46 RMS(Cart)=  0.00316273 RMS(Int)=  1.31915123
 Iteration 47 RMS(Cart)=  0.00315900 RMS(Int)=  0.15679501
 Iteration 48 RMS(Cart)=  0.00316261 RMS(Int)=  1.31880301
 Iteration 49 RMS(Cart)=  0.00315913 RMS(Int)=  0.15711582
 Iteration 50 RMS(Cart)=  0.00316229 RMS(Int)=  1.31850429
 Iteration 51 RMS(Cart)=  0.00315925 RMS(Int)=  0.15739328
 Iteration 52 RMS(Cart)=  0.00316118 RMS(Int)=  1.31824297
 Iteration 53 RMS(Cart)=  0.00315930 RMS(Int)=  0.15763935
 Iteration 54 RMS(Cart)=  0.00316197 RMS(Int)=  1.31801098
 Iteration 55 RMS(Cart)=  0.00315940 RMS(Int)=  0.15785469
 Iteration 56 RMS(Cart)=  0.00316184 RMS(Int)=  1.31780952
 Iteration 57 RMS(Cart)=  0.00315949 RMS(Int)=  0.15804171
 Iteration 58 RMS(Cart)=  0.00316172 RMS(Int)=  1.31763450
 Iteration 59 RMS(Cart)=  0.00315958 RMS(Int)=  0.15820419
 Iteration 60 RMS(Cart)=  0.00316160 RMS(Int)=  1.31748241
 Iteration 61 RMS(Cart)=  0.00315966 RMS(Int)=  0.15834540
 Iteration 62 RMS(Cart)=  0.00316150 RMS(Int)=  1.31735020
 Iteration 63 RMS(Cart)=  0.00315973 RMS(Int)=  0.15846814
 Iteration 64 RMS(Cart)=  0.00316140 RMS(Int)=  1.31723525
 Iteration 65 RMS(Cart)=  0.00315979 RMS(Int)=  0.15857487
 Iteration 66 RMS(Cart)=  0.00316132 RMS(Int)=  1.31713528
 Iteration 67 RMS(Cart)=  0.00315985 RMS(Int)=  0.15866770
 Iteration 68 RMS(Cart)=  0.00316124 RMS(Int)=  1.31704831
 Iteration 69 RMS(Cart)=  0.00315991 RMS(Int)=  0.15874846
 Iteration 70 RMS(Cart)=  0.00316117 RMS(Int)=  1.31697264
 Iteration 71 RMS(Cart)=  0.00315996 RMS(Int)=  0.15881875
 Iteration 72 RMS(Cart)=  0.00316111 RMS(Int)=  1.31690676
 Iteration 73 RMS(Cart)=  0.00316000 RMS(Int)=  0.15887994
 Iteration 74 RMS(Cart)=  0.00316105 RMS(Int)=  1.31684939
 Iteration 75 RMS(Cart)=  0.00316004 RMS(Int)=  0.15893325
 Iteration 76 RMS(Cart)=  0.00316100 RMS(Int)=  1.31679940
 Iteration 77 RMS(Cart)=  0.00316008 RMS(Int)=  0.15897970
 Iteration 78 RMS(Cart)=  0.00316095 RMS(Int)=  1.31675582
 Iteration 79 RMS(Cart)=  0.00316011 RMS(Int)=  0.15902021
 Iteration 80 RMS(Cart)=  0.00316091 RMS(Int)=  1.31671781
 Iteration 81 RMS(Cart)=  0.00316014 RMS(Int)=  0.15905556
 Iteration 82 RMS(Cart)=  0.00316087 RMS(Int)=  1.31668463
 Iteration 83 RMS(Cart)=  0.00316017 RMS(Int)=  0.15908642
 Iteration 84 RMS(Cart)=  0.00316084 RMS(Int)=  1.31665564
 Iteration 85 RMS(Cart)=  0.00316020 RMS(Int)=  0.15911340
 Iteration 86 RMS(Cart)=  0.00316080 RMS(Int)=  1.31663029
 Iteration 87 RMS(Cart)=  0.00316022 RMS(Int)=  0.15913700
 Iteration 88 RMS(Cart)=  0.00316078 RMS(Int)=  1.31660810
 Iteration 89 RMS(Cart)=  0.00316024 RMS(Int)=  0.15915767
 Iteration 90 RMS(Cart)=  0.00316075 RMS(Int)=  1.31658866
 Iteration 91 RMS(Cart)=  0.00316026 RMS(Int)=  0.15917580
 Iteration 92 RMS(Cart)=  0.00316072 RMS(Int)=  1.31657159
 Iteration 93 RMS(Cart)=  0.00316028 RMS(Int)=  0.15919172
 Iteration 94 RMS(Cart)=  0.00316070 RMS(Int)=  1.31655659
 Iteration 95 RMS(Cart)=  0.00316030 RMS(Int)=  0.15920573
 Iteration 96 RMS(Cart)=  0.00316068 RMS(Int)=  1.31654338
 Iteration 97 RMS(Cart)=  0.00316031 RMS(Int)=  0.15921807
 Iteration 98 RMS(Cart)=  0.00316067 RMS(Int)=  1.31653174
 Iteration 99 RMS(Cart)=  0.00316032 RMS(Int)=  0.15922896
 Iteration100 RMS(Cart)=  0.00316065 RMS(Int)=  1.31652144
 New curvilinear step not converged.
 ITry= 5 IFail=1 DXMaxC= 2.06D-02 DCOld= 1.00D+10 DXMaxT= 7.35D-01 DXLimC= 3.00D+00 Rises=F
 Iteration  1 RMS(Cart)=  0.00513059 RMS(Int)=  1.40195207
 Iteration  2 RMS(Cart)=  0.00362756 RMS(Int)=  1.37673820
 Iteration  3 RMS(Cart)=  0.00337913 RMS(Int)=  0.10273943
 Iteration  4 RMS(Cart)=  0.00337781 RMS(Int)=  1.36871768
 Iteration  5 RMS(Cart)=  0.00337471 RMS(Int)=  0.11030613
 Iteration  6 RMS(Cart)=  0.00337314 RMS(Int)=  1.36189633
 Iteration  7 RMS(Cart)=  0.00337048 RMS(Int)=  0.11673927
 Iteration  8 RMS(Cart)=  0.00336976 RMS(Int)=  1.35605976
 Iteration  9 RMS(Cart)=  0.00336273 RMS(Int)=  0.12223422
 Iteration 10 RMS(Cart)=  0.00336694 RMS(Int)=  1.35107024
 Iteration 11 RMS(Cart)=  0.00336482 RMS(Int)=  0.12692239
 Iteration 12 RMS(Cart)=  0.00336492 RMS(Int)=  1.34677624
 Iteration 13 RMS(Cart)=  0.00336279 RMS(Int)=  0.13095678
 Iteration 14 RMS(Cart)=  0.00336333 RMS(Int)=  1.34306792
 Iteration 15 RMS(Cart)=  0.00336117 RMS(Int)=  0.13443645
 Iteration 16 RMS(Cart)=  0.00336209 RMS(Int)=  1.33986004
 Iteration 17 RMS(Cart)=  0.00335991 RMS(Int)=  0.13744279
 Iteration 18 RMS(Cart)=  0.00336115 RMS(Int)=  1.33708186
 Iteration 19 RMS(Cart)=  0.00335874 RMS(Int)=  0.14004287
 Iteration 20 RMS(Cart)=  0.00336039 RMS(Int)=  1.33467541
 Iteration 21 RMS(Cart)=  0.00335819 RMS(Int)=  0.14229230
 Iteration 22 RMS(Cart)=  0.00335958 RMS(Int)=  1.33258830
 Iteration 23 RMS(Cart)=  0.00335757 RMS(Int)=  0.14424257
 Iteration 24 RMS(Cart)=  0.00335931 RMS(Int)=  1.33077612
 Iteration 25 RMS(Cart)=  0.00335726 RMS(Int)=  0.14593405
 Iteration 26 RMS(Cart)=  0.00335895 RMS(Int)=  1.32920165
 Iteration 27 RMS(Cart)=  0.00335675 RMS(Int)=  0.14740254
 Iteration 28 RMS(Cart)=  0.00335861 RMS(Int)=  1.32783455
 Iteration 29 RMS(Cart)=  0.00335647 RMS(Int)=  0.14867620
 Iteration 30 RMS(Cart)=  0.00335834 RMS(Int)=  1.32664770
 Iteration 31 RMS(Cart)=  0.00335625 RMS(Int)=  0.14978120
 Iteration 32 RMS(Cart)=  0.00335810 RMS(Int)=  1.32561718
 Iteration 33 RMS(Cart)=  0.00335609 RMS(Int)=  0.15074014
 Iteration 34 RMS(Cart)=  0.00335792 RMS(Int)=  1.32472226
 Iteration 35 RMS(Cart)=  0.00335596 RMS(Int)=  0.15157244
 Iteration 36 RMS(Cart)=  0.00335771 RMS(Int)=  1.32394498
 Iteration 37 RMS(Cart)=  0.00335587 RMS(Int)=  0.15229525
 Iteration 38 RMS(Cart)=  0.00335760 RMS(Int)=  1.32326955
 Iteration 39 RMS(Cart)=  0.00335574 RMS(Int)=  0.15292307
 Iteration 40 RMS(Cart)=  0.00335747 RMS(Int)=  1.32268243
 Iteration 41 RMS(Cart)=  0.00335511 RMS(Int)=  0.15346597
 Iteration 42 RMS(Cart)=  0.00335731 RMS(Int)=  1.32218066
 Iteration 43 RMS(Cart)=  0.00335574 RMS(Int)=  0.15392919
 Iteration 44 RMS(Cart)=  0.00335721 RMS(Int)=  1.32174738
 Iteration 45 RMS(Cart)=  0.00335571 RMS(Int)=  0.15433147
 Iteration 46 RMS(Cart)=  0.00335713 RMS(Int)=  1.32137097
 Iteration 47 RMS(Cart)=  0.00335516 RMS(Int)=  0.15468020
 Iteration 48 RMS(Cart)=  0.00335702 RMS(Int)=  1.32104605
 Iteration 49 RMS(Cart)=  0.00335509 RMS(Int)=  0.15498032
 Iteration 50 RMS(Cart)=  0.00335692 RMS(Int)=  1.32076664
 Iteration 51 RMS(Cart)=  0.00335517 RMS(Int)=  0.15523807
 Iteration 52 RMS(Cart)=  0.00335682 RMS(Int)=  1.32052690
 Iteration 53 RMS(Cart)=  0.00335525 RMS(Int)=  0.15545898
 Iteration 54 RMS(Cart)=  0.00335674 RMS(Int)=  1.32032154
 Iteration 55 RMS(Cart)=  0.00335535 RMS(Int)=  0.15564809
 Iteration 56 RMS(Cart)=  0.00335668 RMS(Int)=  1.32014573
 Iteration 57 RMS(Cart)=  0.00335545 RMS(Int)=  0.15580999
 Iteration 58 RMS(Cart)=  0.00335662 RMS(Int)=  1.31999517
 Iteration 59 RMS(Cart)=  0.00335553 RMS(Int)=  0.15594866
 Iteration 60 RMS(Cart)=  0.00335657 RMS(Int)=  1.31986614
 Iteration 61 RMS(Cart)=  0.00335559 RMS(Int)=  0.15606753
 Iteration 62 RMS(Cart)=  0.00335652 RMS(Int)=  1.31975548
 Iteration 63 RMS(Cart)=  0.00335583 RMS(Int)=  0.15616981
 Iteration 64 RMS(Cart)=  0.00335649 RMS(Int)=  1.31965959
 Iteration 65 RMS(Cart)=  0.00335583 RMS(Int)=  0.15625878
 Iteration 66 RMS(Cart)=  0.00335647 RMS(Int)=  1.31957617
 Iteration 67 RMS(Cart)=  0.00335583 RMS(Int)=  0.15633619
 Iteration 68 RMS(Cart)=  0.00335645 RMS(Int)=  1.31950357
 Iteration 69 RMS(Cart)=  0.00335584 RMS(Int)=  0.15640357
 Iteration 70 RMS(Cart)=  0.00335642 RMS(Int)=  1.31944035
 Iteration 71 RMS(Cart)=  0.00335584 RMS(Int)=  0.15646226
 Iteration 72 RMS(Cart)=  0.00335640 RMS(Int)=  1.31938528
 Iteration 73 RMS(Cart)=  0.00335585 RMS(Int)=  0.15651340
 Iteration 74 RMS(Cart)=  0.00335638 RMS(Int)=  1.31933727
 Iteration 75 RMS(Cart)=  0.00335585 RMS(Int)=  0.15655799
 Iteration 76 RMS(Cart)=  0.00335636 RMS(Int)=  1.31929539
 Iteration 77 RMS(Cart)=  0.00335586 RMS(Int)=  0.15659690
 Iteration 78 RMS(Cart)=  0.00335634 RMS(Int)=  1.31925883
 Iteration 79 RMS(Cart)=  0.00335587 RMS(Int)=  0.15663089
 Iteration 80 RMS(Cart)=  0.00335632 RMS(Int)=  1.31922688
 Iteration 81 RMS(Cart)=  0.00335588 RMS(Int)=  0.15666059
 Iteration 82 RMS(Cart)=  0.00335630 RMS(Int)=  1.31919895
 Iteration 83 RMS(Cart)=  0.00335588 RMS(Int)=  0.15668659
 Iteration 84 RMS(Cart)=  0.00335628 RMS(Int)=  1.31917449
 Iteration 85 RMS(Cart)=  0.00335589 RMS(Int)=  0.15670935
 Iteration 86 RMS(Cart)=  0.00335627 RMS(Int)=  1.31915305
 Iteration 87 RMS(Cart)=  0.00335590 RMS(Int)=  0.15672933
 Iteration 88 RMS(Cart)=  0.00335625 RMS(Int)=  1.31913423
 Iteration 89 RMS(Cart)=  0.00335591 RMS(Int)=  0.15674687
 Iteration 90 RMS(Cart)=  0.00335624 RMS(Int)=  1.31911769
 Iteration 91 RMS(Cart)=  0.00335592 RMS(Int)=  0.15676230
 Iteration 92 RMS(Cart)=  0.00335622 RMS(Int)=  1.31910313
 Iteration 93 RMS(Cart)=  0.00335592 RMS(Int)=  0.15677591
 Iteration 94 RMS(Cart)=  0.00335621 RMS(Int)=  1.31909027
 Iteration 95 RMS(Cart)=  0.00335593 RMS(Int)=  0.15678792
 Iteration 96 RMS(Cart)=  0.00335620 RMS(Int)=  1.31907891
 Iteration 97 RMS(Cart)=  0.00335594 RMS(Int)=  0.15679856
 Iteration 98 RMS(Cart)=  0.00335619 RMS(Int)=  1.31906884
 Iteration 99 RMS(Cart)=  0.00335594 RMS(Int)=  0.15680800
 Iteration100 RMS(Cart)=  0.00335618 RMS(Int)=  1.31905989
 New curvilinear step not converged.
 ITry= 6 IFail=1 DXMaxC= 1.95D-02 DCOld= 1.00D+10 DXMaxT= 7.35D-01 DXLimC= 3.00D+00 Rises=F
 Iteration  1 RMS(Cart)=  0.00539147 RMS(Int)=  1.40083809
 Iteration  2 RMS(Cart)=  0.00385583 RMS(Int)=  1.37606129
 Iteration  3 RMS(Cart)=  0.00359283 RMS(Int)=  0.10344646
 Iteration  4 RMS(Cart)=  0.00355230 RMS(Int)=  1.36847599
 Iteration  5 RMS(Cart)=  0.00358253 RMS(Int)=  0.11058561
 Iteration  6 RMS(Cart)=  0.00355038 RMS(Int)=  1.36203633
 Iteration  7 RMS(Cart)=  0.00358093 RMS(Int)=  0.11664057
 Iteration  8 RMS(Cart)=  0.00354929 RMS(Int)=  1.35651654
 Iteration  9 RMS(Cart)=  0.00357528 RMS(Int)=  0.12183256
 Iteration 10 RMS(Cart)=  0.00354900 RMS(Int)=  1.35176581
 Iteration 11 RMS(Cart)=  0.00357123 RMS(Int)=  0.12629413
 Iteration 12 RMS(Cart)=  0.00354879 RMS(Int)=  1.34766908
 Iteration 13 RMS(Cart)=  0.00356785 RMS(Int)=  0.13013663
 Iteration 14 RMS(Cart)=  0.00354874 RMS(Int)=  1.34412950
 Iteration 15 RMS(Cart)=  0.00356490 RMS(Int)=  0.13345175
 Iteration 16 RMS(Cart)=  0.00354884 RMS(Int)=  1.34107016
 Iteration 17 RMS(Cart)=  0.00355923 RMS(Int)=  0.13630451
 Iteration 18 RMS(Cart)=  0.00354877 RMS(Int)=  1.33845912
 Iteration 19 RMS(Cart)=  0.00356113 RMS(Int)=  0.13873260
 Iteration 20 RMS(Cart)=  0.00354904 RMS(Int)=  1.33620776
 Iteration 21 RMS(Cart)=  0.00355975 RMS(Int)=  0.14083346
 Iteration 22 RMS(Cart)=  0.00354929 RMS(Int)=  1.33425534
 Iteration 23 RMS(Cart)=  0.00355839 RMS(Int)=  0.14265427
 Iteration 24 RMS(Cart)=  0.00354958 RMS(Int)=  1.33256105
 Iteration 25 RMS(Cart)=  0.00355730 RMS(Int)=  0.14423300
 Iteration 26 RMS(Cart)=  0.00354990 RMS(Int)=  1.33109037
 Iteration 27 RMS(Cart)=  0.00355637 RMS(Int)=  0.14560223
 Iteration 28 RMS(Cart)=  0.00355010 RMS(Int)=  1.32981360
 Iteration 29 RMS(Cart)=  0.00355558 RMS(Int)=  0.14679027
 Iteration 30 RMS(Cart)=  0.00355036 RMS(Int)=  1.32870487
 Iteration 31 RMS(Cart)=  0.00355491 RMS(Int)=  0.14782126
 Iteration 32 RMS(Cart)=  0.00355058 RMS(Int)=  1.32774208
 Iteration 33 RMS(Cart)=  0.00355430 RMS(Int)=  0.14871593
 Iteration 34 RMS(Cart)=  0.00355074 RMS(Int)=  1.32690630
 Iteration 35 RMS(Cart)=  0.00355388 RMS(Int)=  0.14949231
 Iteration 36 RMS(Cart)=  0.00355093 RMS(Int)=  1.32618037
 Iteration 37 RMS(Cart)=  0.00355348 RMS(Int)=  0.15016643
 Iteration 38 RMS(Cart)=  0.00355111 RMS(Int)=  1.32554988
 Iteration 39 RMS(Cart)=  0.00355314 RMS(Int)=  0.15075156
 Iteration 40 RMS(Cart)=  0.00355121 RMS(Int)=  1.32500243
 Iteration 41 RMS(Cart)=  0.00355286 RMS(Int)=  0.15125958
 Iteration 42 RMS(Cart)=  0.00355131 RMS(Int)=  1.32452688
 Iteration 43 RMS(Cart)=  0.00355261 RMS(Int)=  0.15170080
 Iteration 44 RMS(Cart)=  0.00355141 RMS(Int)=  1.32411371
 Iteration 45 RMS(Cart)=  0.00355241 RMS(Int)=  0.15208405
 Iteration 46 RMS(Cart)=  0.00355148 RMS(Int)=  1.32375475
 Iteration 47 RMS(Cart)=  0.00355223 RMS(Int)=  0.15241696
 Iteration 48 RMS(Cart)=  0.00355155 RMS(Int)=  1.32344285
 Iteration 49 RMS(Cart)=  0.00355209 RMS(Int)=  0.15270618
 Iteration 50 RMS(Cart)=  0.00355160 RMS(Int)=  1.32317183
 Iteration 51 RMS(Cart)=  0.00355196 RMS(Int)=  0.15295748
 Iteration 52 RMS(Cart)=  0.00355164 RMS(Int)=  1.32293628
 Iteration 53 RMS(Cart)=  0.00355186 RMS(Int)=  0.15317586
 Iteration 54 RMS(Cart)=  0.00355168 RMS(Int)=  1.32273154
 Iteration 55 RMS(Cart)=  0.00355177 RMS(Int)=  0.15336568
 Iteration 56 RMS(Cart)=  0.00355171 RMS(Int)=  1.32255354
 Iteration 57 RMS(Cart)=  0.00355170 RMS(Int)=  0.15353071
 Iteration 58 RMS(Cart)=  0.00355173 RMS(Int)=  1.32239876
 Iteration 59 RMS(Cart)=  0.00355164 RMS(Int)=  0.15367421
 Iteration 60 RMS(Cart)=  0.00355174 RMS(Int)=  1.32226414
 Iteration 61 RMS(Cart)=  0.00355159 RMS(Int)=  0.15379903
 Iteration 62 RMS(Cart)=  0.00355175 RMS(Int)=  1.32214702
 Iteration 63 RMS(Cart)=  0.00355155 RMS(Int)=  0.15390762
 Iteration 64 RMS(Cart)=  0.00355176 RMS(Int)=  1.32204511
 Iteration 65 RMS(Cart)=  0.00355152 RMS(Int)=  0.15400213
 Iteration 66 RMS(Cart)=  0.00355176 RMS(Int)=  1.32195639
 Iteration 67 RMS(Cart)=  0.00355149 RMS(Int)=  0.15408442
 Iteration 68 RMS(Cart)=  0.00355176 RMS(Int)=  1.32187913
 Iteration 69 RMS(Cart)=  0.00355147 RMS(Int)=  0.15415608
 Iteration 70 RMS(Cart)=  0.00355175 RMS(Int)=  1.32181182
 Iteration 71 RMS(Cart)=  0.00355145 RMS(Int)=  0.15421853
 Iteration 72 RMS(Cart)=  0.00355175 RMS(Int)=  1.32175316
 Iteration 73 RMS(Cart)=  0.00355144 RMS(Int)=  0.15427297
 Iteration 74 RMS(Cart)=  0.00355174 RMS(Int)=  1.32170199
 Iteration 75 RMS(Cart)=  0.00355143 RMS(Int)=  0.15432047
 Iteration 76 RMS(Cart)=  0.00355174 RMS(Int)=  1.32165735
 Iteration 77 RMS(Cart)=  0.00355142 RMS(Int)=  0.15436192
 Iteration 78 RMS(Cart)=  0.00355173 RMS(Int)=  1.32161836
 Iteration 79 RMS(Cart)=  0.00355141 RMS(Int)=  0.15439814
 Iteration 80 RMS(Cart)=  0.00355172 RMS(Int)=  1.32158429
 Iteration 81 RMS(Cart)=  0.00355141 RMS(Int)=  0.15442980
 Iteration 82 RMS(Cart)=  0.00355171 RMS(Int)=  1.32155449
 Iteration 83 RMS(Cart)=  0.00355141 RMS(Int)=  0.15445751
 Iteration 84 RMS(Cart)=  0.00355170 RMS(Int)=  1.32152839
 Iteration 85 RMS(Cart)=  0.00355141 RMS(Int)=  0.15448179
 Iteration 86 RMS(Cart)=  0.00355169 RMS(Int)=  1.32150551
 Iteration 87 RMS(Cart)=  0.00355141 RMS(Int)=  0.15450308
 Iteration 88 RMS(Cart)=  0.00355168 RMS(Int)=  1.32148543
 Iteration 89 RMS(Cart)=  0.00355141 RMS(Int)=  0.15452179
 Iteration 90 RMS(Cart)=  0.00355168 RMS(Int)=  1.32146777
 Iteration 91 RMS(Cart)=  0.00355141 RMS(Int)=  0.15453825
 Iteration 92 RMS(Cart)=  0.00355167 RMS(Int)=  1.32145223
 Iteration 93 RMS(Cart)=  0.00355142 RMS(Int)=  0.15455275
 Iteration 94 RMS(Cart)=  0.00355166 RMS(Int)=  1.32143851
 Iteration 95 RMS(Cart)=  0.00355142 RMS(Int)=  0.15456556
 Iteration 96 RMS(Cart)=  0.00355165 RMS(Int)=  1.32142639
 Iteration 97 RMS(Cart)=  0.00355142 RMS(Int)=  0.15457690
 Iteration 98 RMS(Cart)=  0.00355164 RMS(Int)=  1.32141565
 Iteration 99 RMS(Cart)=  0.00355143 RMS(Int)=  0.15458696
 Iteration100 RMS(Cart)=  0.00355163 RMS(Int)=  1.32140610
 New curvilinear step not converged.
 ITry= 7 IFail=1 DXMaxC= 1.83D-02 DCOld= 1.00D+10 DXMaxT= 7.35D-01 DXLimC= 3.00D+00 Rises=F
 Iteration  1 RMS(Cart)=  0.00565038 RMS(Int)=  1.39972134
 Iteration  2 RMS(Cart)=  0.00408381 RMS(Int)=  1.37528080
 Iteration  3 RMS(Cart)=  0.00380600 RMS(Int)=  0.10428399
 Iteration  4 RMS(Cart)=  0.00372650 RMS(Int)=  1.36804154
 Iteration  5 RMS(Cart)=  0.00379719 RMS(Int)=  0.11108704
 Iteration  6 RMS(Cart)=  0.00372821 RMS(Int)=  1.36186178
 Iteration  7 RMS(Cart)=  0.00378943 RMS(Int)=  0.11689248
 Iteration  8 RMS(Cart)=  0.00372962 RMS(Int)=  1.35656039
 Iteration  9 RMS(Cart)=  0.00378274 RMS(Int)=  0.12186825
 Iteration 10 RMS(Cart)=  0.00373108 RMS(Int)=  1.35199886
 Iteration 11 RMS(Cart)=  0.00377757 RMS(Int)=  0.12614487
 Iteration 12 RMS(Cart)=  0.00373263 RMS(Int)=  1.34806294
 Iteration 13 RMS(Cart)=  0.00377303 RMS(Int)=  0.12983102
 Iteration 14 RMS(Cart)=  0.00373412 RMS(Int)=  1.34466051
 Iteration 15 RMS(Cart)=  0.00376916 RMS(Int)=  0.13301384
 Iteration 16 RMS(Cart)=  0.00373874 RMS(Int)=  1.34172911
 Iteration 17 RMS(Cart)=  0.00376612 RMS(Int)=  0.13573697
 Iteration 18 RMS(Cart)=  0.00373669 RMS(Int)=  1.33921390
 Iteration 19 RMS(Cart)=  0.00376344 RMS(Int)=  0.13808387
 Iteration 20 RMS(Cart)=  0.00373795 RMS(Int)=  1.33703428
 Iteration 21 RMS(Cart)=  0.00376096 RMS(Int)=  0.14011544
 Iteration 22 RMS(Cart)=  0.00373894 RMS(Int)=  1.33514398
 Iteration 23 RMS(Cart)=  0.00375896 RMS(Int)=  0.14187640
 Iteration 24 RMS(Cart)=  0.00373997 RMS(Int)=  1.33350308
 Iteration 25 RMS(Cart)=  0.00375721 RMS(Int)=  0.14340387
 Iteration 26 RMS(Cart)=  0.00374089 RMS(Int)=  1.33207827
 Iteration 27 RMS(Cart)=  0.00375573 RMS(Int)=  0.14472921
 Iteration 28 RMS(Cart)=  0.00374170 RMS(Int)=  1.33084084
 Iteration 29 RMS(Cart)=  0.00375446 RMS(Int)=  0.14587956
 Iteration 30 RMS(Cart)=  0.00374243 RMS(Int)=  1.32976597
 Iteration 31 RMS(Cart)=  0.00375337 RMS(Int)=  0.14687823
 Iteration 32 RMS(Cart)=  0.00374306 RMS(Int)=  1.32883217
 Iteration 33 RMS(Cart)=  0.00375243 RMS(Int)=  0.14774542
 Iteration 34 RMS(Cart)=  0.00374362 RMS(Int)=  1.32802083
 Iteration 35 RMS(Cart)=  0.00375162 RMS(Int)=  0.14849855
 Iteration 36 RMS(Cart)=  0.00374411 RMS(Int)=  1.32731584
 Iteration 37 RMS(Cart)=  0.00375093 RMS(Int)=  0.14915274
 Iteration 38 RMS(Cart)=  0.00374454 RMS(Int)=  1.32670319
 Iteration 39 RMS(Cart)=  0.00375033 RMS(Int)=  0.14972105
 Iteration 40 RMS(Cart)=  0.00374491 RMS(Int)=  1.32617077
 Iteration 41 RMS(Cart)=  0.00374982 RMS(Int)=  0.15021481
 Iteration 42 RMS(Cart)=  0.00374524 RMS(Int)=  1.32570802
 Iteration 43 RMS(Cart)=  0.00374938 RMS(Int)=  0.15064386
 Iteration 44 RMS(Cart)=  0.00374552 RMS(Int)=  1.32530580
 Iteration 45 RMS(Cart)=  0.00374900 RMS(Int)=  0.15101671
 Iteration 46 RMS(Cart)=  0.00374576 RMS(Int)=  1.32495616
 Iteration 47 RMS(Cart)=  0.00374867 RMS(Int)=  0.15134077
 Iteration 48 RMS(Cart)=  0.00374596 RMS(Int)=  1.32465221
 Iteration 49 RMS(Cart)=  0.00374839 RMS(Int)=  0.15162244
 Iteration 50 RMS(Cart)=  0.00374614 RMS(Int)=  1.32438795
 Iteration 51 RMS(Cart)=  0.00374815 RMS(Int)=  0.15186732
 Iteration 52 RMS(Cart)=  0.00374629 RMS(Int)=  1.32415818
 Iteration 53 RMS(Cart)=  0.00374794 RMS(Int)=  0.15208022
 Iteration 54 RMS(Cart)=  0.00374642 RMS(Int)=  1.32395835
 Iteration 55 RMS(Cart)=  0.00374777 RMS(Int)=  0.15226536
 Iteration 56 RMS(Cart)=  0.00374653 RMS(Int)=  1.32378455
 Iteration 57 RMS(Cart)=  0.00374761 RMS(Int)=  0.15242639
 Iteration 58 RMS(Cart)=  0.00374662 RMS(Int)=  1.32363337
 Iteration 59 RMS(Cart)=  0.00374749 RMS(Int)=  0.15256647
 Iteration 60 RMS(Cart)=  0.00374670 RMS(Int)=  1.32350182
 Iteration 61 RMS(Cart)=  0.00374738 RMS(Int)=  0.15268836
 Iteration 62 RMS(Cart)=  0.00374676 RMS(Int)=  1.32338733
 Iteration 63 RMS(Cart)=  0.00374728 RMS(Int)=  0.15279445
 Iteration 64 RMS(Cart)=  0.00374681 RMS(Int)=  1.32328766
 Iteration 65 RMS(Cart)=  0.00374720 RMS(Int)=  0.15288681
 Iteration 66 RMS(Cart)=  0.00374686 RMS(Int)=  1.32320087
 Iteration 67 RMS(Cart)=  0.00374714 RMS(Int)=  0.15296726
 Iteration 68 RMS(Cart)=  0.00374689 RMS(Int)=  1.32312526
 Iteration 69 RMS(Cart)=  0.00374708 RMS(Int)=  0.15303734
 Iteration 70 RMS(Cart)=  0.00374692 RMS(Int)=  1.32305937
 Iteration 71 RMS(Cart)=  0.00374703 RMS(Int)=  0.15309844
 Iteration 72 RMS(Cart)=  0.00374694 RMS(Int)=  1.32300191
 Iteration 73 RMS(Cart)=  0.00374699 RMS(Int)=  0.15315173
 Iteration 74 RMS(Cart)=  0.00374696 RMS(Int)=  1.32295179
 Iteration 75 RMS(Cart)=  0.00374696 RMS(Int)=  0.15319823
 Iteration 76 RMS(Cart)=  0.00374698 RMS(Int)=  1.32290802
 Iteration 77 RMS(Cart)=  0.00374693 RMS(Int)=  0.15323884
 Iteration 78 RMS(Cart)=  0.00374699 RMS(Int)=  1.32286979
 Iteration 79 RMS(Cart)=  0.00374691 RMS(Int)=  0.15327433
 Iteration 80 RMS(Cart)=  0.00374699 RMS(Int)=  1.32283636
 Iteration 81 RMS(Cart)=  0.00374689 RMS(Int)=  0.15330538
 Iteration 82 RMS(Cart)=  0.00374700 RMS(Int)=  1.32280710
 Iteration 83 RMS(Cart)=  0.00374688 RMS(Int)=  0.15333257
 Iteration 84 RMS(Cart)=  0.00374700 RMS(Int)=  1.32278147
 Iteration 85 RMS(Cart)=  0.00374686 RMS(Int)=  0.15335641
 Iteration 86 RMS(Cart)=  0.00374700 RMS(Int)=  1.32275898
 Iteration 87 RMS(Cart)=  0.00374685 RMS(Int)=  0.15337733
 Iteration 88 RMS(Cart)=  0.00374700 RMS(Int)=  1.32273922
 Iteration 89 RMS(Cart)=  0.00374685 RMS(Int)=  0.15339572
 Iteration 90 RMS(Cart)=  0.00374700 RMS(Int)=  1.32272184
 Iteration 91 RMS(Cart)=  0.00374684 RMS(Int)=  0.15341192
 Iteration 92 RMS(Cart)=  0.00374700 RMS(Int)=  1.32270652
 Iteration 93 RMS(Cart)=  0.00374684 RMS(Int)=  0.15342621
 Iteration 94 RMS(Cart)=  0.00374699 RMS(Int)=  1.32269299
 Iteration 95 RMS(Cart)=  0.00374684 RMS(Int)=  0.15343885
 Iteration 96 RMS(Cart)=  0.00374699 RMS(Int)=  1.32268102
 Iteration 97 RMS(Cart)=  0.00374683 RMS(Int)=  0.15345004
 Iteration 98 RMS(Cart)=  0.00374699 RMS(Int)=  1.32267039
 Iteration 99 RMS(Cart)=  0.00374683 RMS(Int)=  0.15345999
 Iteration100 RMS(Cart)=  0.00374698 RMS(Int)=  1.32266094
 New curvilinear step not converged.
 ITry= 8 IFail=1 DXMaxC= 1.72D-02 DCOld= 1.00D+10 DXMaxT= 7.35D-01 DXLimC= 3.00D+00 Rises=F
 Iteration  1 RMS(Cart)=  0.00590830 RMS(Int)=  1.39860158
 Iteration  2 RMS(Cart)=  0.00431219 RMS(Int)=  1.37445517
 Iteration  3 RMS(Cart)=  0.00401750 RMS(Int)=  0.10518044
 Iteration  4 RMS(Cart)=  0.00390210 RMS(Int)=  1.36752818
 Iteration  5 RMS(Cart)=  0.00400873 RMS(Int)=  0.11167742
 Iteration  6 RMS(Cart)=  0.00390552 RMS(Int)=  1.36160315
 Iteration  7 RMS(Cart)=  0.00399910 RMS(Int)=  0.11723579
 Iteration  8 RMS(Cart)=  0.00390969 RMS(Int)=  1.35651146
 Iteration  9 RMS(Cart)=  0.00399072 RMS(Int)=  0.12200667
 Iteration 10 RMS(Cart)=  0.00391309 RMS(Int)=  1.35212693
 Iteration 11 RMS(Cart)=  0.00398420 RMS(Int)=  0.12611101
 Iteration 12 RMS(Cart)=  0.00391639 RMS(Int)=  1.34834054
 Iteration 13 RMS(Cart)=  0.00397824 RMS(Int)=  0.12965203
 Iteration 14 RMS(Cart)=  0.00391940 RMS(Int)=  1.34506543
 Iteration 15 RMS(Cart)=  0.00397322 RMS(Int)=  0.13271135
 Iteration 16 RMS(Cart)=  0.00392051 RMS(Int)=  1.34222304
 Iteration 17 RMS(Cart)=  0.00396882 RMS(Int)=  0.13537126
 Iteration 18 RMS(Cart)=  0.00392376 RMS(Int)=  1.33974422
 Iteration 19 RMS(Cart)=  0.00396510 RMS(Int)=  0.13768671
 Iteration 20 RMS(Cart)=  0.00392688 RMS(Int)=  1.33758756
 Iteration 21 RMS(Cart)=  0.00396184 RMS(Int)=  0.13969540
 Iteration 22 RMS(Cart)=  0.00392877 RMS(Int)=  1.33571688
 Iteration 23 RMS(Cart)=  0.00395920 RMS(Int)=  0.14143619
 Iteration 24 RMS(Cart)=  0.00393045 RMS(Int)=  1.33409334
 Iteration 25 RMS(Cart)=  0.00395688 RMS(Int)=  0.14294603
 Iteration 26 RMS(Cart)=  0.00393199 RMS(Int)=  1.33268362
 Iteration 27 RMS(Cart)=  0.00395486 RMS(Int)=  0.14425615
 Iteration 28 RMS(Cart)=  0.00393331 RMS(Int)=  1.33145919
 Iteration 29 RMS(Cart)=  0.00395312 RMS(Int)=  0.14539346
 Iteration 30 RMS(Cart)=  0.00393451 RMS(Int)=  1.33039543
 Iteration 31 RMS(Cart)=  0.00395161 RMS(Int)=  0.14638098
 Iteration 32 RMS(Cart)=  0.00393555 RMS(Int)=  1.32947115
 Iteration 33 RMS(Cart)=  0.00395030 RMS(Int)=  0.14723863
 Iteration 34 RMS(Cart)=  0.00393646 RMS(Int)=  1.32866794
 Iteration 35 RMS(Cart)=  0.00394917 RMS(Int)=  0.14798363
 Iteration 36 RMS(Cart)=  0.00393726 RMS(Int)=  1.32796989
 Iteration 37 RMS(Cart)=  0.00394820 RMS(Int)=  0.14863086
 Iteration 38 RMS(Cart)=  0.00393796 RMS(Int)=  1.32736317
 Iteration 39 RMS(Cart)=  0.00394735 RMS(Int)=  0.14919323
 Iteration 40 RMS(Cart)=  0.00393857 RMS(Int)=  1.32683579
 Iteration 41 RMS(Cart)=  0.00394662 RMS(Int)=  0.14968193
 Iteration 42 RMS(Cart)=  0.00393910 RMS(Int)=  1.32637735
 Iteration 43 RMS(Cart)=  0.00394599 RMS(Int)=  0.15010666
 Iteration 44 RMS(Cart)=  0.00393955 RMS(Int)=  1.32597879
 Iteration 45 RMS(Cart)=  0.00394544 RMS(Int)=  0.15047584
 Iteration 46 RMS(Cart)=  0.00393995 RMS(Int)=  1.32563227
 Iteration 47 RMS(Cart)=  0.00394497 RMS(Int)=  0.15079677
 Iteration 48 RMS(Cart)=  0.00394029 RMS(Int)=  1.32533096
 Iteration 49 RMS(Cart)=  0.00394456 RMS(Int)=  0.15107579
 Iteration 50 RMS(Cart)=  0.00394059 RMS(Int)=  1.32506894
 Iteration 51 RMS(Cart)=  0.00394420 RMS(Int)=  0.15131841
 Iteration 52 RMS(Cart)=  0.00394084 RMS(Int)=  1.32484106
 Iteration 53 RMS(Cart)=  0.00394390 RMS(Int)=  0.15152941
 Iteration 54 RMS(Cart)=  0.00394106 RMS(Int)=  1.32464283
 Iteration 55 RMS(Cart)=  0.00394363 RMS(Int)=  0.15171294
 Iteration 56 RMS(Cart)=  0.00394125 RMS(Int)=  1.32447038
 Iteration 57 RMS(Cart)=  0.00394341 RMS(Int)=  0.15187261
 Iteration 58 RMS(Cart)=  0.00394141 RMS(Int)=  1.32432032
 Iteration 59 RMS(Cart)=  0.00394321 RMS(Int)=  0.15201154
 Iteration 60 RMS(Cart)=  0.00394155 RMS(Int)=  1.32418972
 Iteration 61 RMS(Cart)=  0.00394304 RMS(Int)=  0.15213247
 Iteration 62 RMS(Cart)=  0.00394167 RMS(Int)=  1.32407602
 Iteration 63 RMS(Cart)=  0.00394290 RMS(Int)=  0.15223776
 Iteration 64 RMS(Cart)=  0.00394177 RMS(Int)=  1.32397701
 Iteration 65 RMS(Cart)=  0.00394277 RMS(Int)=  0.15232945
 Iteration 66 RMS(Cart)=  0.00394185 RMS(Int)=  1.32389076
 Iteration 67 RMS(Cart)=  0.00394267 RMS(Int)=  0.15240933
 Iteration 68 RMS(Cart)=  0.00394192 RMS(Int)=  1.32381560
 Iteration 69 RMS(Cart)=  0.00394258 RMS(Int)=  0.15247896
 Iteration 70 RMS(Cart)=  0.00394198 RMS(Int)=  1.32375008
 Iteration 71 RMS(Cart)=  0.00394250 RMS(Int)=  0.15253968
 Iteration 72 RMS(Cart)=  0.00394203 RMS(Int)=  1.32369292
 Iteration 73 RMS(Cart)=  0.00394243 RMS(Int)=  0.15259265
 Iteration 74 RMS(Cart)=  0.00394207 RMS(Int)=  1.32364303
 Iteration 75 RMS(Cart)=  0.00394238 RMS(Int)=  0.15263890
 Iteration 76 RMS(Cart)=  0.00394210 RMS(Int)=  1.32359946
 Iteration 77 RMS(Cart)=  0.00394233 RMS(Int)=  0.15267931
 Iteration 78 RMS(Cart)=  0.00394213 RMS(Int)=  1.32356138
 Iteration 79 RMS(Cart)=  0.00394229 RMS(Int)=  0.15271465
 Iteration 80 RMS(Cart)=  0.00394215 RMS(Int)=  1.32352806
 Iteration 81 RMS(Cart)=  0.00394226 RMS(Int)=  0.15274557
 Iteration 82 RMS(Cart)=  0.00394217 RMS(Int)=  1.32349888
 Iteration 83 RMS(Cart)=  0.00394223 RMS(Int)=  0.15277267
 Iteration 84 RMS(Cart)=  0.00394219 RMS(Int)=  1.32347330
 Iteration 85 RMS(Cart)=  0.00394220 RMS(Int)=  0.15279644
 Iteration 86 RMS(Cart)=  0.00394220 RMS(Int)=  1.32345085
 Iteration 87 RMS(Cart)=  0.00394218 RMS(Int)=  0.15281732
 Iteration 88 RMS(Cart)=  0.00394221 RMS(Int)=  1.32343111
 Iteration 89 RMS(Cart)=  0.00394217 RMS(Int)=  0.15283569
 Iteration 90 RMS(Cart)=  0.00394221 RMS(Int)=  1.32341374
 Iteration 91 RMS(Cart)=  0.00394216 RMS(Int)=  0.15285188
 Iteration 92 RMS(Cart)=  0.00394222 RMS(Int)=  1.32339841
 Iteration 93 RMS(Cart)=  0.00394214 RMS(Int)=  0.15286617
 Iteration 94 RMS(Cart)=  0.00394222 RMS(Int)=  1.32338486
 Iteration 95 RMS(Cart)=  0.00394214 RMS(Int)=  0.15287882
 Iteration 96 RMS(Cart)=  0.00394222 RMS(Int)=  1.32337286
 Iteration 97 RMS(Cart)=  0.00394213 RMS(Int)=  0.15289003
 Iteration 98 RMS(Cart)=  0.00394222 RMS(Int)=  1.32336220
 Iteration 99 RMS(Cart)=  0.00394212 RMS(Int)=  0.15290001
 Iteration100 RMS(Cart)=  0.00394222 RMS(Int)=  1.32335271
 New curvilinear step not converged.
 ITry= 9 IFail=1 DXMaxC= 1.60D-02 DCOld= 1.00D+10 DXMaxT= 7.35D-01 DXLimC= 3.00D+00 Rises=F
 Iteration  1 RMS(Cart)=  0.00616592 RMS(Int)=  1.39747983
 Iteration  2 RMS(Cart)=  0.00454162 RMS(Int)=  1.37358325
 Iteration  3 RMS(Cart)=  0.00423327 RMS(Int)=  0.10614112
 Iteration  4 RMS(Cart)=  0.00407777 RMS(Int)=  1.36691370
 Iteration  5 RMS(Cart)=  0.00421994 RMS(Int)=  0.11238728
 Iteration  6 RMS(Cart)=  0.00408418 RMS(Int)=  1.36120400
 Iteration  7 RMS(Cart)=  0.00420854 RMS(Int)=  0.11773279
 Iteration  8 RMS(Cart)=  0.00409004 RMS(Int)=  1.35629647
 Iteration  9 RMS(Cart)=  0.00419878 RMS(Int)=  0.12232397
 Iteration 10 RMS(Cart)=  0.00409543 RMS(Int)=  1.35206619
 Iteration 11 RMS(Cart)=  0.00419043 RMS(Int)=  0.12627790
 Iteration 12 RMS(Cart)=  0.00410035 RMS(Int)=  1.34841193
 Iteration 13 RMS(Cart)=  0.00418317 RMS(Int)=  0.12968987
 Iteration 14 RMS(Cart)=  0.00410476 RMS(Int)=  1.34525083
 Iteration 15 RMS(Cart)=  0.00417702 RMS(Int)=  0.13263825
 Iteration 16 RMS(Cart)=  0.00410869 RMS(Int)=  1.34251306
 Iteration 17 RMS(Cart)=  0.00417169 RMS(Int)=  0.13518943
 Iteration 18 RMS(Cart)=  0.00411224 RMS(Int)=  1.34013970
 Iteration 19 RMS(Cart)=  0.00416744 RMS(Int)=  0.13739973
 Iteration 20 RMS(Cart)=  0.00411539 RMS(Int)=  1.33807805
 Iteration 21 RMS(Cart)=  0.00416305 RMS(Int)=  0.13931814
 Iteration 22 RMS(Cart)=  0.00411801 RMS(Int)=  1.33628807
 Iteration 23 RMS(Cart)=  0.00415961 RMS(Int)=  0.14098215
 Iteration 24 RMS(Cart)=  0.00412061 RMS(Int)=  1.33473365
 Iteration 25 RMS(Cart)=  0.00415659 RMS(Int)=  0.14242573
 Iteration 26 RMS(Cart)=  0.00412276 RMS(Int)=  1.33338422
 Iteration 27 RMS(Cart)=  0.00415400 RMS(Int)=  0.14367800
 Iteration 28 RMS(Cart)=  0.00412465 RMS(Int)=  1.33221272
 Iteration 29 RMS(Cart)=  0.00415176 RMS(Int)=  0.14476449
 Iteration 30 RMS(Cart)=  0.00412631 RMS(Int)=  1.33119555
 Iteration 31 RMS(Cart)=  0.00414983 RMS(Int)=  0.14570739
 Iteration 32 RMS(Cart)=  0.00412777 RMS(Int)=  1.33031219
 Iteration 33 RMS(Cart)=  0.00414816 RMS(Int)=  0.14652595
 Iteration 34 RMS(Cart)=  0.00412964 RMS(Int)=  1.32954664
 Iteration 35 RMS(Cart)=  0.00414675 RMS(Int)=  0.14723201
 Iteration 36 RMS(Cart)=  0.00413059 RMS(Int)=  1.32888575
 Iteration 37 RMS(Cart)=  0.00414549 RMS(Int)=  0.14784446
 Iteration 38 RMS(Cart)=  0.00413113 RMS(Int)=  1.32831083
 Iteration 39 RMS(Cart)=  0.00414438 RMS(Int)=  0.14837667
 Iteration 40 RMS(Cart)=  0.00413195 RMS(Int)=  1.32781128
 Iteration 41 RMS(Cart)=  0.00414341 RMS(Int)=  0.14883900
 Iteration 42 RMS(Cart)=  0.00413268 RMS(Int)=  1.32737715
 Iteration 43 RMS(Cart)=  0.00414258 RMS(Int)=  0.14924073
 Iteration 44 RMS(Cart)=  0.00413333 RMS(Int)=  1.32699981
 Iteration 45 RMS(Cart)=  0.00414185 RMS(Int)=  0.14958984
 Iteration 46 RMS(Cart)=  0.00413390 RMS(Int)=  1.32667181
 Iteration 47 RMS(Cart)=  0.00414121 RMS(Int)=  0.14989326
 Iteration 48 RMS(Cart)=  0.00413439 RMS(Int)=  1.32638667
 Iteration 49 RMS(Cart)=  0.00414067 RMS(Int)=  0.15015702
 Iteration 50 RMS(Cart)=  0.00413481 RMS(Int)=  1.32613875
 Iteration 51 RMS(Cart)=  0.00414019 RMS(Int)=  0.15038634
 Iteration 52 RMS(Cart)=  0.00413518 RMS(Int)=  1.32592314
 Iteration 53 RMS(Cart)=  0.00413978 RMS(Int)=  0.15058576
 Iteration 54 RMS(Cart)=  0.00413550 RMS(Int)=  1.32573561
 Iteration 55 RMS(Cart)=  0.00413942 RMS(Int)=  0.15075922
 Iteration 56 RMS(Cart)=  0.00413577 RMS(Int)=  1.32557245
 Iteration 57 RMS(Cart)=  0.00413911 RMS(Int)=  0.15091014
 Iteration 58 RMS(Cart)=  0.00413601 RMS(Int)=  1.32543046
 Iteration 59 RMS(Cart)=  0.00413884 RMS(Int)=  0.15104148
 Iteration 60 RMS(Cart)=  0.00413621 RMS(Int)=  1.32530686
 Iteration 61 RMS(Cart)=  0.00413861 RMS(Int)=  0.15115582
 Iteration 62 RMS(Cart)=  0.00413639 RMS(Int)=  1.32519923
 Iteration 63 RMS(Cart)=  0.00413841 RMS(Int)=  0.15125541
 Iteration 64 RMS(Cart)=  0.00413653 RMS(Int)=  1.32510548
 Iteration 65 RMS(Cart)=  0.00413823 RMS(Int)=  0.15134217
 Iteration 66 RMS(Cart)=  0.00413666 RMS(Int)=  1.32502377
 Iteration 67 RMS(Cart)=  0.00413808 RMS(Int)=  0.15141779
 Iteration 68 RMS(Cart)=  0.00413677 RMS(Int)=  1.32495253
 Iteration 69 RMS(Cart)=  0.00413796 RMS(Int)=  0.15148374
 Iteration 70 RMS(Cart)=  0.00413686 RMS(Int)=  1.32489039
 Iteration 71 RMS(Cart)=  0.00413785 RMS(Int)=  0.15154129
 Iteration 72 RMS(Cart)=  0.00413694 RMS(Int)=  1.32483614
 Iteration 73 RMS(Cart)=  0.00413775 RMS(Int)=  0.15159154
 Iteration 74 RMS(Cart)=  0.00413701 RMS(Int)=  1.32478875
 Iteration 75 RMS(Cart)=  0.00413767 RMS(Int)=  0.15163545
 Iteration 76 RMS(Cart)=  0.00413707 RMS(Int)=  1.32474733
 Iteration 77 RMS(Cart)=  0.00413760 RMS(Int)=  0.15167385
 Iteration 78 RMS(Cart)=  0.00413711 RMS(Int)=  1.32471108
 Iteration 79 RMS(Cart)=  0.00413754 RMS(Int)=  0.15170747
 Iteration 80 RMS(Cart)=  0.00413715 RMS(Int)=  1.32467933
 Iteration 81 RMS(Cart)=  0.00413749 RMS(Int)=  0.15173694
 Iteration 82 RMS(Cart)=  0.00413719 RMS(Int)=  1.32465148
 Iteration 83 RMS(Cart)=  0.00413745 RMS(Int)=  0.15176279
 Iteration 84 RMS(Cart)=  0.00413721 RMS(Int)=  1.32462704
 Iteration 85 RMS(Cart)=  0.00413741 RMS(Int)=  0.15178551
 Iteration 86 RMS(Cart)=  0.00413724 RMS(Int)=  1.32460554
 Iteration 87 RMS(Cart)=  0.00413738 RMS(Int)=  0.15180550
 Iteration 88 RMS(Cart)=  0.00413725 RMS(Int)=  1.32458660
 Iteration 89 RMS(Cart)=  0.00413735 RMS(Int)=  0.15182312
 Iteration 90 RMS(Cart)=  0.00413727 RMS(Int)=  1.32456990
 Iteration 91 RMS(Cart)=  0.00413733 RMS(Int)=  0.15183869
 Iteration 92 RMS(Cart)=  0.00413728 RMS(Int)=  1.32455512
 Iteration 93 RMS(Cart)=  0.00413731 RMS(Int)=  0.15185247
 Iteration 94 RMS(Cart)=  0.00413729 RMS(Int)=  1.32454203
 Iteration 95 RMS(Cart)=  0.00413730 RMS(Int)=  0.15186470
 Iteration 96 RMS(Cart)=  0.00413730 RMS(Int)=  1.32453040
 Iteration 97 RMS(Cart)=  0.00413728 RMS(Int)=  0.15187557
 Iteration 98 RMS(Cart)=  0.00413730 RMS(Int)=  1.32452004
 Iteration 99 RMS(Cart)=  0.00413727 RMS(Int)=  0.15188528
 Iteration100 RMS(Cart)=  0.00413731 RMS(Int)=  1.32451078
 New curvilinear step not converged.
 ITry=10 IFail=1 DXMaxC= 1.48D-02 DCOld= 1.00D+10 DXMaxT= 7.35D-01 DXLimC= 3.00D+00 Rises=F
 RedQX1 iteration     1 Try  1 RMS(Cart)=  0.00776962 RMS(Int)=  1.40750671 XScale=  0.05001409
 RedQX1 iteration     2 Try  1 RMS(Cart)=  0.00155392 RMS(Int)=  1.40714360 XScale=  0.05002624
 RedQX1 iteration     3 Try  1 RMS(Cart)=  0.00031078 RMS(Int)=  0.07245131 XScale= 46.82046404
 RedQX1 iteration     3 Try  2 RMS(Cart)=  0.00031078 RMS(Int)=  1.40411199 XScale=  0.05012893
 RedQX1 iteration     4 Try  1 RMS(Cart)=  0.00030830 RMS(Int)=  1.40404412 XScale=  0.05013124
 RedQX1 iteration     5 Try  1 RMS(Cart)=  0.00006166 RMS(Int)=  0.07119197 XScale= 25.86964923
 RedQX1 iteration     5 Try  2 RMS(Cart)=  0.00006166 RMS(Int)=  0.06727969 XScale= 10.79575430
 RedQX1 iteration     5 Try  3 RMS(Cart)=  0.00006166 RMS(Int)=  1.29332259 XScale=  0.05419551
 RedQX1 iteration     6 Try  1 RMS(Cart)=  0.00006146 RMS(Int)=  1.28735226 XScale=  0.05443347
 RedQX1 iteration     7 Try  1 RMS(Cart)=  0.00001229 RMS(Int)=  0.06525266 XScale=  8.28651203
 RedQX1 iteration     7 Try  2 RMS(Cart)=  0.00001229 RMS(Int)=  0.06174618 XScale=  5.90593433
 RedQX1 iteration     7 Try  3 RMS(Cart)=  0.00001229 RMS(Int)=  0.05420351 XScale=  3.64205164
 RedQX1 iteration     7 Try  4 RMS(Cart)=  0.00001229 RMS(Int)=  0.02688276 XScale=  1.48284183
 RedQX1 iteration     7 Try  5 RMS(Cart)=  0.00001229 RMS(Int)=  1.28996698 XScale=  0.05432900
 RedQX1 iteration     8 Try  1 RMS(Cart)=  0.00001228 RMS(Int)=  1.28947223 XScale=  0.05434873
 RedQX1 iteration     9 Try  1 RMS(Cart)=  0.00000246 RMS(Int)=  0.01482859 XScale=  1.06510398
 RedQX1 iteration     9 Try  2 RMS(Cart)=  0.00000246 RMS(Int)=  0.04341090 XScale=  0.65238242
 RedQX1 iteration    10 Try  1 RMS(Cart)=  0.00000246 RMS(Int)=  0.04340660 XScale=  0.65240863
 RedQX1 iteration    11 Try  1 RMS(Cart)=  0.00000049 RMS(Int)=  0.01478121 XScale=  0.98222048
 RedQX1 iteration    12 Try  1 RMS(Cart)=  0.00000010 RMS(Int)=  0.01464192 XScale=  1.04851844
 B after Tr=     0.000000    0.000000    0.000000
         Rot=    1.000000   -0.000000    0.000000    0.000000 Ang=   0.00 deg.
 Variable       Old X    -DE/DX   Delta X   Delta X   Delta X     New X
                                 (Linear)    (Quad)   (Total)
    R1        2.78009  -0.00015   0.00324  -0.00360  -0.00000   2.78008
    R2        2.78011  -0.00006   0.00026  -0.00107  -0.00001   2.78010
    R3        2.78003  -0.00005   0.00036  -0.00109  -0.00001   2.78002
    R4        3.25089  -0.00065  -0.00137   0.00249   0.00001   3.25090
    R5        3.03103   0.00056   0.00266   0.00500   0.00010   3.03113
    R6        2.94367  -0.00095   0.00261  -0.00271  -0.00000   2.94367
    R7        4.26519  -0.00398  -0.02096  -0.01323  -0.00043   4.26477
    R8        4.26405  -0.00388  -0.02085  -0.01265  -0.00042   4.26363
    A1        1.95171   0.00041  -0.00173   0.00348   0.00002   1.95173
    A2        1.95190   0.00040  -0.00181   0.00347   0.00002   1.95193
    A3        1.87386  -0.00133   0.00492  -0.00951  -0.00006   1.87381
    A4        1.95424   0.00010   0.00081  -0.00096  -0.00000   1.95424
    A5        1.86303   0.00016  -0.00104   0.00145   0.00001   1.86304
    A6        1.86262   0.00017  -0.00084   0.00141   0.00001   1.86263
    A7        3.14086   0.00050   0.10482  -0.04709   0.00072   3.14158
    A8        2.10401  -0.00110  -0.00100  -0.00598  -0.00009   2.10392
    A9        1.78139  -0.00050  -0.00234  -0.00033  -0.00003   1.78136
   A10        1.78147  -0.00049  -0.00211  -0.00029  -0.00003   1.78144
   A11        1.98653   0.00092   0.00064   0.00413   0.00006   1.98659
   A12        1.98678   0.00093   0.00065   0.00415   0.00006   1.98684
   A13        1.78282   0.00021   0.00467  -0.00187   0.00004   1.78285
    D1       -3.05394   0.00001   0.17642  -0.02300   0.14975  -2.90419
    D2        1.13388   0.00015   0.17641  -0.02283   0.14975   1.28363
    D3       -0.95856  -0.00013   0.17644  -0.02320   0.14974  -0.80882
    D4        3.02364   0.00000  -0.18058   0.02611  -0.14976   2.87388
    D5        0.80216  -0.00001  -0.17862   0.02507  -0.14975   0.65241
    D6       -1.03764   0.00004  -0.18232   0.02722  -0.14977  -1.18741
         Item               Value     Threshold  Converged?
 Maximum Force            0.003979     0.000015     NO 
 RMS     Force            0.001193     0.000010     NO 
 Maximum Displacement     0.000997     0.000060     NO 
 RMS     Displacement     0.000486     0.000040     NO 
 Predicted change in Energy=-1.106887D-04
 GradGradGradGradGradGradGradGradGradGradGradGradGradGradGradGradGradGrad

                          Input orientation:                          
 ---------------------------------------------------------------------
 Center     Atomic      Atomic             Coordinates (Angstroms)
 Number     Number       Type             X           Y           Z
 ---------------------------------------------------------------------
      1         14           0       -1.627876   -0.534820   -1.339607
      2          1           0       -0.808056   -1.523636   -0.622363
      3          1           0       -1.073755   -0.224138   -2.666539
      4          1           0       -3.038731   -0.944782   -1.414566
      5          8           0       -1.584232    0.924775   -0.430147
      6         15           0       -1.543550    2.285701    0.417823
      7          8           0       -0.762679    2.356779    1.763815
      8         17           0       -3.735364    2.788748    0.607875
      9         17           0       -0.845114    3.780013   -1.121567
 ---------------------------------------------------------------------
                    Distance matrix (angstroms):
                    1          2          3          4          5
     1  Si   0.000000
     2  H    1.471156   0.000000
     3  H    1.471163   2.436791   0.000000
     4  H    1.471122   2.436918   2.438831   0.000000
     5  O    1.720303   2.575677   2.565548   2.565130   0.000000
     6  P    3.324307   4.016714   4.004159   4.003654   1.604004
     7  O    4.329104   4.555604   5.136724   5.116916   2.745734
     8  Cl   4.390934   5.355304   5.184924   4.302885   3.029729
     9  Cl   4.390677   5.327220   4.297958   5.217423   3.029314
                    6          7          8          9
     6  P    0.000000
     7  O    1.557724   0.000000
     8  Cl   2.256818   3.218641   0.000000
     9  Cl   2.256214   3.218357   3.511000   0.000000
 Symmetry turned off by external request.
 Stoichiometry    Cl2H3O2PSi
 Framework group  C1[X(Cl2H3O2PSi)]
 Deg. of freedom    21
 Full point group                 C1      NOp   1
 Rotational constants (GHZ):           1.5402125           1.0103453           0.8296584
 Standard basis: 6-311G(3d2f,3p2d) (5D, 7F)
   128 basis functions,   242 primitive gaussians,   128 cartesian basis functions
    41 alpha electrons       41 beta electrons
       nuclear repulsion energy       527.2552110398 Hartrees.



 Warning!  P  atom    6 may be hypervalent but has no d functions.



 NAtoms=    9 NActive=    9 NUniq=    9 SFac= 1.00D+00 NAtFMM=   60 NAOKFM=F Big=F
 Integral buffers will be    131072 words long.
 Raffenetti 2 integral format.
 Two-electron integral symmetry is turned off.
 One-electron integrals computed using PRISM.
 NBasis=   128 RedAO= T EigKep=  1.25D-02  NBF=   128
 NBsUse=   128 1.00D-06 EigRej= -1.00D+00 NBFU=   128
 Initial guess from the checkpoint file:  "H3SiOPOCl2_B3LYP_6-311g.chk"
 B after Tr=    -0.000249   -0.000088   -0.000349
         Rot=    1.000000   -0.000038   -0.000016    0.000031 Ang=  -0.01 deg.
 Keep R1 ints in memory in canonical form, NReq=56933861.
 Requested convergence on RMS density matrix=1.00D-08 within 128 cycles.
 Requested convergence on MAX density matrix=1.00D-06.
 Requested convergence on             energy=1.00D-06.
 No special actions if energy rises.
 SCF Done:  E(RB3LYP) =  -1703.54692638     A.U. after    7 cycles
            NFock=  7  Conv=0.82D-08     -V/T= 2.0022
 Calling FoFJK, ICntrl=      2127 FMM=F ISym2X=0 I1Cent= 0 IOpClX= 0 NMat=1 NMatS=1 NMatT=0.
 -------------------------------------------------------------------
 Center     Atomic                   Forces (Hartrees/Bohr)
 Number     Number              X              Y              Z
 -------------------------------------------------------------------
      1       14          -0.000203292    0.000109801   -0.000237930
      2        1           0.000035148    0.000505269    0.000358323
      3        1          -0.000057174    0.000019126    0.000043183
      4        1           0.000038040    0.000054265   -0.000022399
      5        8           0.000167942   -0.001144596   -0.000421593
      6       15          -0.002172050    0.004921828   -0.000660079
      7        8          -0.000283607   -0.000708514   -0.000889931
      8       17           0.003771410   -0.001039361   -0.000573025
      9       17          -0.001296417   -0.002717817    0.002403450
 -------------------------------------------------------------------
 Cartesian Forces:  Max     0.004921828 RMS     0.001530548

 GradGradGradGradGradGradGradGradGradGradGradGradGradGradGradGradGradGrad
 Berny optimization.
 Using GEDIIS/GDIIS optimizer.
 FormGI is forming the generalized inverse of G from B-inverse, IUseBI=4.
 Internal  Forces:  Max     0.003941995 RMS     0.001181765
 Search for a local minimum.
 Step number  11 out of a maximum of  100
 All quantities printed in internal units (Hartrees-Bohrs-Radians)
 Mixed Optimization -- RFO/linear search
 Update second derivatives using D2CorX and points    9   10   11
 DE= -4.06D-06 DEPred=-1.11D-04 R= 3.67D-02
 Trust test= 3.67D-02 RLast= 3.67D-01 DXMaxT set to 3.68D-01
 ITU= -1  1  1  1  1  1  1  1  0  1  0
 Use linear search instead of GDIIS.
     Eigenvalues ---    0.00000   0.01485   0.01624   0.10756   0.10906
     Eigenvalues ---    0.14123   0.14553   0.15998   0.16014   0.17589
     Eigenvalues ---    0.18162   0.18253   0.18264   0.18880   0.24726
     Eigenvalues ---    0.24999   0.25031   0.27464   0.30389   0.41901
     Eigenvalues ---    0.52672
 RFO step:  Lambda=-1.80798959D-04 EMin= 1.94766860D-07
 Quartic linear search produced a step of  2.00000.
 Iteration  1 RMS(Cart)=  0.00317162 RMS(Int)=  0.04181479
 Iteration  2 RMS(Cart)=  0.00688655 RMS(Int)=  0.00229500
 SLEqS3 Cycle:    36 Max:0.820667E-03 RMS: 74.3333     Conv:0.246926E-03
 Iteration  3 RMS(Cart)=  0.00302889 RMS(Int)=  0.00125034
 Iteration  4 RMS(Cart)=  0.00000136 RMS(Int)=  0.00124945
 Iteration  5 RMS(Cart)=  0.00000077 RMS(Int)=  0.00124894
 Variable       Old X    -DE/DX   Delta X   Delta X   Delta X     New X
                                 (Linear)    (Quad)   (Total)
    R1        2.78008  -0.00015  -0.00001  -0.00017  -0.00021   2.77987
    R2        2.78010  -0.00005  -0.00002  -0.00018  -0.00009   2.78001
    R3        2.78002  -0.00005  -0.00002  -0.00018   0.00012   2.78014
    R4        3.25090  -0.00065   0.00003   0.00158   0.00144   3.25234
    R5        3.03113   0.00054   0.00019   0.00501   0.00399   3.03512
    R6        2.94367  -0.00094  -0.00000  -0.00039  -0.00039   2.94329
    R7        4.26477  -0.00394  -0.00085  -0.02095  -0.02139   4.24338
    R8        4.26363  -0.00384  -0.00084  -0.02037  -0.02299   4.24064
    A1        1.95173   0.00040   0.00004   0.00163   0.00141   1.95314
    A2        1.95193   0.00040   0.00004   0.00158   0.00110   1.95303
    A3        1.87381  -0.00131  -0.00011  -0.00521  -0.00419   1.86961
    A4        1.95424   0.00010  -0.00000  -0.00091  -0.00126   1.95298
    A5        1.86304   0.00016   0.00001   0.00137   0.00156   1.86459
    A6        1.86263   0.00017   0.00001   0.00128   0.00125   1.86388
    A7        3.14158   0.00048   0.00144  -0.00074  -0.00020   3.14138
    A8        2.10392  -0.00109  -0.00017  -0.00566  -0.00526   2.09866
    A9        1.78136  -0.00050  -0.00007  -0.00090  -0.00262   1.77874
   A10        1.78144  -0.00048  -0.00006  -0.00072  -0.00091   1.78054
   A11        1.98659   0.00092   0.00012   0.00331   0.00383   1.99041
   A12        1.98684   0.00092   0.00012   0.00327   0.00403   1.99087
   A13        1.78285   0.00021   0.00007   0.00100   0.00092   1.78377
    D1       -2.90419   0.00001   0.29949  -0.01074   0.28673  -2.61746
    D2        1.28363   0.00015   0.29950  -0.01063   0.28647   1.57009
    D3       -0.80882  -0.00013   0.29949  -0.01095   0.28648  -0.52234
    D4        2.87388   0.00000  -0.29952   0.01264  -0.28513   2.58875
    D5        0.65241  -0.00001  -0.29950   0.01300  -0.28424   0.36817
    D6       -1.18741   0.00004  -0.29954   0.01239  -0.28422  -1.47163
         Item               Value     Threshold  Converged?
 Maximum Force            0.003942     0.000015     NO 
 RMS     Force            0.001182     0.000010     NO 
 Maximum Displacement     0.016638     0.000060     NO 
 RMS     Displacement     0.006398     0.000040     NO 
 Predicted change in Energy=-9.668080D-05
 GradGradGradGradGradGradGradGradGradGradGradGradGradGradGradGradGradGrad

                          Input orientation:                          
 ---------------------------------------------------------------------
 Center     Atomic      Atomic             Coordinates (Angstroms)
 Number     Number       Type             X           Y           Z
 ---------------------------------------------------------------------
      1         14           0       -1.628695   -0.533611   -1.340196
      2          1           0       -0.809488   -1.518523   -0.617133
      3          1           0       -1.073334   -0.226205   -2.667319
      4          1           0       -3.039367   -0.944025   -1.417377
      5          8           0       -1.584846    0.927058   -0.431026
      6         15           0       -1.544232    2.290247    0.417309
      7          8           0       -0.761266    2.354287    1.762199
      8         17           0       -3.726560    2.784792    0.604784
      9         17           0       -0.851568    3.774619   -1.116515
 ---------------------------------------------------------------------
                    Distance matrix (angstroms):
                    1          2          3          4          5
     1  Si   0.000000
     2  H    1.471044   0.000000
     3  H    1.471116   2.437819   0.000000
     4  H    1.471188   2.437786   2.437808   0.000000
     5  O    1.721066   2.572291   2.567619   2.566997   0.000000
     6  P    3.327180   4.014554   4.008641   4.007744   1.606114
     7  O    4.326343   4.545569   5.135850   5.116475   2.743265
     8  Cl   4.381299   5.340497   5.178067   4.297144   3.018446
     9  Cl   4.383470   5.316813   4.296600   5.209855   3.019304
                    6          7          8          9
     6  P    0.000000
     7  O    1.557520   0.000000
     8  Cl   2.245501   3.212150   0.000000
     9  Cl   2.244050   3.211307   3.494024   0.000000
 Symmetry turned off by external request.
 Stoichiometry    Cl2H3O2PSi
 Framework group  C1[X(Cl2H3O2PSi)]
 Deg. of freedom    21
 Full point group                 C1      NOp   1
 Rotational constants (GHZ):           1.5513226           1.0127456           0.8337638
 Standard basis: 6-311G(3d2f,3p2d) (5D, 7F)
   128 basis functions,   242 primitive gaussians,   128 cartesian basis functions
    41 alpha electrons       41 beta electrons
       nuclear repulsion energy       528.4086634910 Hartrees.



 Warning!  P  atom    6 may be hypervalent but has no d functions.



 NAtoms=    9 NActive=    9 NUniq=    9 SFac= 1.00D+00 NAtFMM=   60 NAOKFM=F Big=F
 Integral buffers will be    131072 words long.
 Raffenetti 2 integral format.
 Two-electron integral symmetry is turned off.
 One-electron integrals computed using PRISM.
 NBasis=   128 RedAO= T EigKep=  1.25D-02  NBF=   128
 NBsUse=   128 1.00D-06 EigRej= -1.00D+00 NBFU=   128
 Initial guess from the checkpoint file:  "H3SiOPOCl2_B3LYP_6-311g.chk"
 B after Tr=     0.001991   -0.000613   -0.003128
         Rot=    1.000000   -0.000182   -0.000257   -0.000172 Ang=  -0.04 deg.
 Keep R1 ints in memory in canonical form, NReq=56933861.
 Requested convergence on RMS density matrix=1.00D-08 within 128 cycles.
 Requested convergence on MAX density matrix=1.00D-06.
 Requested convergence on             energy=1.00D-06.
 No special actions if energy rises.
 SCF Done:  E(RB3LYP) =  -1703.54706555     A.U. after   10 cycles
            NFock= 10  Conv=0.66D-08     -V/T= 2.0022
 Calling FoFJK, ICntrl=      2127 FMM=F ISym2X=0 I1Cent= 0 IOpClX= 0 NMat=1 NMatS=1 NMatT=0.
 -------------------------------------------------------------------
 Center     Atomic                   Forces (Hartrees/Bohr)
 Number     Number              X              Y              Z
 -------------------------------------------------------------------
      1       14          -0.000077443    0.000729764    0.000452952
      2        1           0.000010621    0.000288361    0.000168244
      3        1          -0.000001448    0.000028139    0.000032217
      4        1           0.000046722    0.000040885    0.000006031
      5        8           0.000065415   -0.000695005   -0.000516092
      6       15          -0.001055684    0.001452528   -0.000341050
      7        8          -0.000245151   -0.000287510   -0.000640830
      8       17           0.001768072   -0.000420502   -0.000193816
      9       17          -0.000511103   -0.001136660    0.001032345
 -------------------------------------------------------------------
 Cartesian Forces:  Max     0.001768072 RMS     0.000651725

 GradGradGradGradGradGradGradGradGradGradGradGradGradGradGradGradGradGrad
 Berny optimization.
 Using GEDIIS/GDIIS optimizer.
 FormGI is forming the generalized inverse of G from B-inverse, IUseBI=4.
 Internal  Forces:  Max     0.001826357 RMS     0.000595928
 Search for a local minimum.
 Step number  12 out of a maximum of  100
 All quantities printed in internal units (Hartrees-Bohrs-Radians)
 Mixed Optimization -- En-DIIS/RFO-DIIS
 Update second derivatives using D2CorX and points   11   12
 DE= -1.39D-04 DEPred=-9.67D-05 R= 1.44D+00
 TightC=F SS=  1.41D+00  RLast= 7.00D-01 DXNew= 6.1824D-01 2.1007D+00
 Trust test= 1.44D+00 RLast= 7.00D-01 DXMaxT set to 6.18D-01
 ITU=  1 -1  1  1  1  1  1  1  1  0  1  0
 Use linear search instead of GDIIS.
     Eigenvalues ---    0.00000   0.01502   0.01610   0.09795   0.10774
     Eigenvalues ---    0.11192   0.14207   0.15362   0.16001   0.16229
     Eigenvalues ---    0.18076   0.18253   0.18263   0.18333   0.24315
     Eigenvalues ---    0.24972   0.25007   0.26662   0.30347   0.41823
     Eigenvalues ---    0.51805
 RFO step:  Lambda=-4.79896526D-05 EMin= 2.02837005D-07
 Quartic linear search produced a step of  0.68790.
 New curvilinear step failed, DQL= 7.69D+00 SP=-5.72D-03.
 ITry= 1 IFail=1 DXMaxC= 0.00D+00 DCOld= 1.00D+10 DXMaxT= 6.18D-01 DXLimC= 3.00D+00 Rises=F
 New curvilinear step failed, DQL= 7.69D+00 SP=-5.05D-03.
 ITry= 2 IFail=1 DXMaxC= 0.00D+00 DCOld= 1.00D+10 DXMaxT= 6.18D-01 DXLimC= 3.00D+00 Rises=F
 New curvilinear step failed, DQL= 7.69D+00 SP=-4.86D-03.
 ITry= 3 IFail=1 DXMaxC= 0.00D+00 DCOld= 1.00D+10 DXMaxT= 6.18D-01 DXLimC= 3.00D+00 Rises=F
 Iteration  1 RMS(Cart)=  0.00207547 RMS(Int)=  1.40016298
 Iteration  2 RMS(Cart)=  0.00144648 RMS(Int)=  1.37644215
 Iteration  3 RMS(Cart)=  0.00134000 RMS(Int)=  0.10133874
 Iteration  4 RMS(Cart)=  0.00134165 RMS(Int)=  1.37003539
 Iteration  5 RMS(Cart)=  0.00133092 RMS(Int)=  0.10743451
 Iteration  6 RMS(Cart)=  0.00133247 RMS(Int)=  1.36454797
 Iteration  7 RMS(Cart)=  0.00132551 RMS(Int)=  0.11265604
 Iteration  8 RMS(Cart)=  0.00133060 RMS(Int)=  1.35978972
 Iteration  9 RMS(Cart)=  0.00132682 RMS(Int)=  0.11718193
 Iteration 10 RMS(Cart)=  0.00132925 RMS(Int)=  1.35567710
 Iteration 11 RMS(Cart)=  0.00132309 RMS(Int)=  0.12105861
 Iteration 12 RMS(Cart)=  0.00132488 RMS(Int)=  1.35215758
 Iteration 13 RMS(Cart)=  0.00132012 RMS(Int)=  0.12437329
 Iteration 14 RMS(Cart)=  0.00132071 RMS(Int)=  1.34912113
 Iteration 15 RMS(Cart)=  0.00131670 RMS(Int)=  0.12723605
 Iteration 16 RMS(Cart)=  0.00131963 RMS(Int)=  1.34652210
 Iteration 17 RMS(Cart)=  0.00131602 RMS(Int)=  0.12966053
 Iteration 18 RMS(Cart)=  0.00131710 RMS(Int)=  1.34430002
 Iteration 19 RMS(Cart)=  0.00131338 RMS(Int)=  0.13173610
 Iteration 20 RMS(Cart)=  0.00131493 RMS(Int)=  1.34241075
 Iteration 21 RMS(Cart)=  0.00131355 RMS(Int)=  0.13350482
 Iteration 22 RMS(Cart)=  0.00131388 RMS(Int)=  1.34076697
 Iteration 23 RMS(Cart)=  0.00131158 RMS(Int)=  0.13504469
 Iteration 24 RMS(Cart)=  0.00131614 RMS(Int)=  1.33938776
 Iteration 25 RMS(Cart)=  0.00131199 RMS(Int)=  0.13628206
 Iteration 26 RMS(Cart)=  0.00131467 RMS(Int)=  1.33829272
 Iteration 27 RMS(Cart)=  0.00131178 RMS(Int)=  0.13726648
 Iteration 28 RMS(Cart)=  0.00131373 RMS(Int)=  1.33742014
 Iteration 29 RMS(Cart)=  0.00131147 RMS(Int)=  0.13804770
 Iteration 30 RMS(Cart)=  0.00131269 RMS(Int)=  1.33672672
 Iteration 31 RMS(Cart)=  0.00131119 RMS(Int)=  0.13866990
 Iteration 32 RMS(Cart)=  0.00131138 RMS(Int)=  1.33616634
 Iteration 33 RMS(Cart)=  0.00131014 RMS(Int)=  0.13917692
 Iteration 34 RMS(Cart)=  0.00131105 RMS(Int)=  1.33571868
 Iteration 35 RMS(Cart)=  0.00131072 RMS(Int)=  0.13957827
 Iteration 36 RMS(Cart)=  0.00131036 RMS(Int)=  1.33535000
 Iteration 37 RMS(Cart)=  0.00131053 RMS(Int)=  0.13992160
 Iteration 38 RMS(Cart)=  0.00131030 RMS(Int)=  1.33503087
 Iteration 39 RMS(Cart)=  0.00131029 RMS(Int)=  0.14021711
 Iteration 40 RMS(Cart)=  0.00131086 RMS(Int)=  1.33476455
 Iteration 41 RMS(Cart)=  0.00131020 RMS(Int)=  0.14045047
 Iteration 42 RMS(Cart)=  0.00131014 RMS(Int)=  1.33455676
 Iteration 43 RMS(Cart)=  0.00130962 RMS(Int)=  0.14063576
 Iteration 44 RMS(Cart)=  0.00131010 RMS(Int)=  1.33439736
 Iteration 45 RMS(Cart)=  0.00130965 RMS(Int)=  0.14077125
 Iteration 46 RMS(Cart)=  0.00131006 RMS(Int)=  1.33428387
 Iteration 47 RMS(Cart)=  0.00130978 RMS(Int)=  0.14086546
 Iteration 48 RMS(Cart)=  0.00131002 RMS(Int)=  1.33420620
 Iteration 49 RMS(Cart)=  0.00130972 RMS(Int)=  0.14092722
 Iteration 50 RMS(Cart)=  0.00130997 RMS(Int)=  1.33415932
 Iteration 51 RMS(Cart)=  0.00130969 RMS(Int)=  0.14096017
 Iteration 52 RMS(Cart)=  0.00130991 RMS(Int)=  1.33413913
 Iteration 53 RMS(Cart)=  0.00130967 RMS(Int)=  0.14096867
 Iteration 54 RMS(Cart)=  0.00130985 RMS(Int)=  1.33414113
 Iteration 55 RMS(Cart)=  0.00130967 RMS(Int)=  0.14095724
 Iteration 56 RMS(Cart)=  0.00130980 RMS(Int)=  1.33416089
 Iteration 57 RMS(Cart)=  0.00130967 RMS(Int)=  0.14093013
 Iteration 58 RMS(Cart)=  0.00130976 RMS(Int)=  1.33419438
 Iteration 59 RMS(Cart)=  0.00130968 RMS(Int)=  0.14089115
 Iteration 60 RMS(Cart)=  0.00130972 RMS(Int)=  1.33423807
 Iteration 61 RMS(Cart)=  0.00130969 RMS(Int)=  0.14084355
 Iteration 62 RMS(Cart)=  0.00130970 RMS(Int)=  1.33428895
 Iteration 63 RMS(Cart)=  0.00130969 RMS(Int)=  0.14079006
 Iteration 64 RMS(Cart)=  0.00130967 RMS(Int)=  1.33434456
 Iteration 65 RMS(Cart)=  0.00130970 RMS(Int)=  0.14073291
 Iteration 66 RMS(Cart)=  0.00130966 RMS(Int)=  1.33440290
 Iteration 67 RMS(Cart)=  0.00130970 RMS(Int)=  0.14067387
 Iteration 68 RMS(Cart)=  0.00130965 RMS(Int)=  1.33446239
 Iteration 69 RMS(Cart)=  0.00130970 RMS(Int)=  0.14061436
 Iteration 70 RMS(Cart)=  0.00130964 RMS(Int)=  1.33452177
 Iteration 71 RMS(Cart)=  0.00130970 RMS(Int)=  0.14055547
 Iteration 72 RMS(Cart)=  0.00130964 RMS(Int)=  1.33458009
 Iteration 73 RMS(Cart)=  0.00130971 RMS(Int)=  0.14049802
 Iteration 74 RMS(Cart)=  0.00130963 RMS(Int)=  1.33463664
 Iteration 75 RMS(Cart)=  0.00130971 RMS(Int)=  0.14044262
 Iteration 76 RMS(Cart)=  0.00130963 RMS(Int)=  1.33469090
 Iteration 77 RMS(Cart)=  0.00130971 RMS(Int)=  0.14038971
 Iteration 78 RMS(Cart)=  0.00130963 RMS(Int)=  1.33474251
 Iteration 79 RMS(Cart)=  0.00130970 RMS(Int)=  0.14033957
 Iteration 80 RMS(Cart)=  0.00130963 RMS(Int)=  1.33479124
 Iteration 81 RMS(Cart)=  0.00130970 RMS(Int)=  0.14029239
 Iteration 82 RMS(Cart)=  0.00130964 RMS(Int)=  1.33483696
 Iteration 83 RMS(Cart)=  0.00130970 RMS(Int)=  0.14024826
 Iteration 84 RMS(Cart)=  0.00130964 RMS(Int)=  1.33487960
 Iteration 85 RMS(Cart)=  0.00130970 RMS(Int)=  0.14020719
 Iteration 86 RMS(Cart)=  0.00130964 RMS(Int)=  1.33491920
 Iteration 87 RMS(Cart)=  0.00130970 RMS(Int)=  0.14016915
 Iteration 88 RMS(Cart)=  0.00130965 RMS(Int)=  1.33495578
 Iteration 89 RMS(Cart)=  0.00130970 RMS(Int)=  0.14013407
 Iteration 90 RMS(Cart)=  0.00130965 RMS(Int)=  1.33498946
 Iteration 91 RMS(Cart)=  0.00130970 RMS(Int)=  0.14010185
 Iteration 92 RMS(Cart)=  0.00130965 RMS(Int)=  1.33502034
 Iteration 93 RMS(Cart)=  0.00130969 RMS(Int)=  0.14007236
 Iteration 94 RMS(Cart)=  0.00130965 RMS(Int)=  1.33504855
 Iteration 95 RMS(Cart)=  0.00130969 RMS(Int)=  0.14004546
 Iteration 96 RMS(Cart)=  0.00130966 RMS(Int)=  1.33507423
 Iteration 97 RMS(Cart)=  0.00130969 RMS(Int)=  0.14002101
 Iteration 98 RMS(Cart)=  0.00130966 RMS(Int)=  1.33509755
 Iteration 99 RMS(Cart)=  0.00130969 RMS(Int)=  0.13999885
 Iteration100 RMS(Cart)=  0.00130966 RMS(Int)=  1.33511864
 New curvilinear step not converged.
 ITry= 4 IFail=1 DXMaxC= 1.49D-02 DCOld= 1.00D+10 DXMaxT= 6.18D-01 DXLimC= 3.00D+00 Rises=F
 Iteration  1 RMS(Cart)=  0.00172599 RMS(Int)=  1.39826463
 Iteration  2 RMS(Cart)=  0.00123478 RMS(Int)=  1.37237299
 Iteration  3 RMS(Cart)=  0.00116115 RMS(Int)=  0.10595851
 Iteration  4 RMS(Cart)=  0.00116971 RMS(Int)=  1.36310781
 Iteration  5 RMS(Cart)=  0.00114355 RMS(Int)=  0.11496628
 Iteration  6 RMS(Cart)=  0.00116042 RMS(Int)=  1.35516725
 Iteration  7 RMS(Cart)=  0.00113748 RMS(Int)=  0.12258574
 Iteration  8 RMS(Cart)=  0.00115309 RMS(Int)=  1.34838831
 Iteration  9 RMS(Cart)=  0.00113295 RMS(Int)=  0.12907054
 Iteration 10 RMS(Cart)=  0.00114715 RMS(Int)=  1.34257660
 Iteration 11 RMS(Cart)=  0.00112954 RMS(Int)=  0.13461371
 Iteration 12 RMS(Cart)=  0.00114254 RMS(Int)=  1.33758233
 Iteration 13 RMS(Cart)=  0.00112696 RMS(Int)=  0.13936188
 Iteration 14 RMS(Cart)=  0.00113874 RMS(Int)=  1.33328595
 Iteration 15 RMS(Cart)=  0.00112507 RMS(Int)=  0.14343465
 Iteration 16 RMS(Cart)=  0.00113536 RMS(Int)=  1.32958242
 Iteration 17 RMS(Cart)=  0.00112370 RMS(Int)=  0.14694126
 Iteration 18 RMS(Cart)=  0.00113320 RMS(Int)=  1.32638404
 Iteration 19 RMS(Cart)=  0.00112272 RMS(Int)=  0.14995826
 Iteration 20 RMS(Cart)=  0.00113087 RMS(Int)=  1.32362353
 Iteration 21 RMS(Cart)=  0.00112093 RMS(Int)=  0.15255513
 Iteration 22 RMS(Cart)=  0.00112906 RMS(Int)=  1.32125905
 Iteration 23 RMS(Cart)=  0.00112163 RMS(Int)=  0.15477562
 Iteration 24 RMS(Cart)=  0.00112775 RMS(Int)=  1.31920977
 Iteration 25 RMS(Cart)=  0.00112112 RMS(Int)=  0.15670505
 Iteration 26 RMS(Cart)=  0.00112233 RMS(Int)=  1.31737945
 Iteration 27 RMS(Cart)=  0.00112048 RMS(Int)=  0.15849569
 Iteration 28 RMS(Cart)=  0.00112622 RMS(Int)=  1.31568614
 Iteration 29 RMS(Cart)=  0.00111865 RMS(Int)=  0.16007274
 Iteration 30 RMS(Cart)=  0.00112467 RMS(Int)=  1.31425075
 Iteration 31 RMS(Cart)=  0.00112078 RMS(Int)=  0.16141911
 Iteration 32 RMS(Cart)=  0.00112465 RMS(Int)=  1.31299367
 Iteration 33 RMS(Cart)=  0.00111511 RMS(Int)=  0.16255812
 Iteration 34 RMS(Cart)=  0.00112386 RMS(Int)=  1.31204202
 Iteration 35 RMS(Cart)=  0.00111702 RMS(Int)=  0.16337077
 Iteration 36 RMS(Cart)=  0.00112323 RMS(Int)=  1.31135883
 Iteration 37 RMS(Cart)=  0.00112087 RMS(Int)=  0.16397427
 Iteration 38 RMS(Cart)=  0.00112296 RMS(Int)=  1.31080206
 Iteration 39 RMS(Cart)=  0.00112087 RMS(Int)=  0.16449037
 Iteration 40 RMS(Cart)=  0.00112272 RMS(Int)=  1.31032611
 Iteration 41 RMS(Cart)=  0.00112090 RMS(Int)=  0.16493110
 Iteration 42 RMS(Cart)=  0.00112252 RMS(Int)=  1.30991960
 Iteration 43 RMS(Cart)=  0.00112094 RMS(Int)=  0.16530745
 Iteration 44 RMS(Cart)=  0.00112235 RMS(Int)=  1.30957213
 Iteration 45 RMS(Cart)=  0.00112098 RMS(Int)=  0.16562935
 Iteration 46 RMS(Cart)=  0.00112221 RMS(Int)=  1.30927443
 Iteration 47 RMS(Cart)=  0.00112103 RMS(Int)=  0.16590546
 Iteration 48 RMS(Cart)=  0.00112204 RMS(Int)=  1.30901794
 Iteration 49 RMS(Cart)=  0.00112106 RMS(Int)=  0.16614491
 Iteration 50 RMS(Cart)=  0.00112200 RMS(Int)=  1.30879493
 Iteration 51 RMS(Cart)=  0.00112110 RMS(Int)=  0.16635251
 Iteration 52 RMS(Cart)=  0.00112192 RMS(Int)=  1.30860179
 Iteration 53 RMS(Cart)=  0.00112112 RMS(Int)=  0.16653238
 Iteration 54 RMS(Cart)=  0.00112185 RMS(Int)=  1.30843427
 Iteration 55 RMS(Cart)=  0.00112115 RMS(Int)=  0.16668856
 Iteration 56 RMS(Cart)=  0.00112179 RMS(Int)=  1.30828865
 Iteration 57 RMS(Cart)=  0.00112117 RMS(Int)=  0.16682445
 Iteration 58 RMS(Cart)=  0.00112174 RMS(Int)=  1.30816179
 Iteration 59 RMS(Cart)=  0.00112118 RMS(Int)=  0.16694294
 Iteration 60 RMS(Cart)=  0.00112169 RMS(Int)=  1.30805107
 Iteration 61 RMS(Cart)=  0.00112120 RMS(Int)=  0.16704644
 Iteration 62 RMS(Cart)=  0.00112165 RMS(Int)=  1.30795426
 Iteration 63 RMS(Cart)=  0.00112121 RMS(Int)=  0.16713701
 Iteration 64 RMS(Cart)=  0.00112162 RMS(Int)=  1.30786946
 Iteration 65 RMS(Cart)=  0.00112122 RMS(Int)=  0.16721641
 Iteration 66 RMS(Cart)=  0.00112159 RMS(Int)=  1.30779506
 Iteration 67 RMS(Cart)=  0.00112123 RMS(Int)=  0.16728613
 Iteration 68 RMS(Cart)=  0.00112156 RMS(Int)=  1.30772966
 Iteration 69 RMS(Cart)=  0.00112124 RMS(Int)=  0.16734746
 Iteration 70 RMS(Cart)=  0.00112154 RMS(Int)=  1.30767208
 Iteration 71 RMS(Cart)=  0.00112125 RMS(Int)=  0.16740152
 Iteration 72 RMS(Cart)=  0.00112152 RMS(Int)=  1.30762128
 Iteration 73 RMS(Cart)=  0.00112126 RMS(Int)=  0.16744926
 Iteration 74 RMS(Cart)=  0.00112150 RMS(Int)=  1.30757636
 Iteration 75 RMS(Cart)=  0.00112127 RMS(Int)=  0.16749155
 Iteration 76 RMS(Cart)=  0.00112149 RMS(Int)=  1.30753645
 Iteration 77 RMS(Cart)=  0.00112137 RMS(Int)=  0.16753012
 Iteration 78 RMS(Cart)=  0.00112148 RMS(Int)=  1.30749816
 Iteration 79 RMS(Cart)=  0.00112130 RMS(Int)=  0.16756741
 Iteration 80 RMS(Cart)=  0.00112147 RMS(Int)=  1.30746246
 Iteration 81 RMS(Cart)=  0.00112129 RMS(Int)=  0.16760138
 Iteration 82 RMS(Cart)=  0.00112145 RMS(Int)=  1.30743031
 Iteration 83 RMS(Cart)=  0.00112129 RMS(Int)=  0.16763180
 Iteration 84 RMS(Cart)=  0.00112144 RMS(Int)=  1.30740152
 Iteration 85 RMS(Cart)=  0.00112129 RMS(Int)=  0.16765903
 Iteration 86 RMS(Cart)=  0.00112143 RMS(Int)=  1.30737572
 Iteration 87 RMS(Cart)=  0.00112130 RMS(Int)=  0.16768345
 Iteration 88 RMS(Cart)=  0.00112142 RMS(Int)=  1.30735256
 Iteration 89 RMS(Cart)=  0.00112130 RMS(Int)=  0.16770542
 Iteration 90 RMS(Cart)=  0.00112142 RMS(Int)=  1.30733170
 Iteration 91 RMS(Cart)=  0.00112131 RMS(Int)=  0.16772522
 Iteration 92 RMS(Cart)=  0.00112141 RMS(Int)=  1.30731286
 Iteration 93 RMS(Cart)=  0.00112131 RMS(Int)=  0.16774315
 Iteration 94 RMS(Cart)=  0.00112140 RMS(Int)=  1.30729578
 Iteration 95 RMS(Cart)=  0.00112131 RMS(Int)=  0.16775942
 Iteration 96 RMS(Cart)=  0.00112140 RMS(Int)=  1.30728024
 Iteration 97 RMS(Cart)=  0.00112132 RMS(Int)=  0.16777425
 Iteration 98 RMS(Cart)=  0.00112139 RMS(Int)=  1.30726605
 Iteration 99 RMS(Cart)=  0.00112132 RMS(Int)=  0.16778783
 Iteration100 RMS(Cart)=  0.00112139 RMS(Int)=  1.30725304
 New curvilinear step not converged.
 ITry= 5 IFail=1 DXMaxC= 1.38D-02 DCOld= 1.00D+10 DXMaxT= 6.18D-01 DXLimC= 3.00D+00 Rises=F
 Iteration  1 RMS(Cart)=  0.00151234 RMS(Int)=  1.39633745
 Iteration  2 RMS(Cart)=  0.00103563 RMS(Int)=  1.37036839
 Iteration  3 RMS(Cart)=  0.00085030 RMS(Int)=  0.10729274
 Iteration  4 RMS(Cart)=  0.00096287 RMS(Int)=  1.36617338
 Iteration  5 RMS(Cart)=  0.00096066 RMS(Int)=  0.11028625
 Iteration  6 RMS(Cart)=  0.00096903 RMS(Int)=  1.36317164
 Iteration  7 RMS(Cart)=  0.00095395 RMS(Int)=  0.11316401
 Iteration  8 RMS(Cart)=  0.00096199 RMS(Int)=  1.36044290
 Iteration  9 RMS(Cart)=  0.00094909 RMS(Int)=  0.11578043
 Iteration 10 RMS(Cart)=  0.00095645 RMS(Int)=  1.35795798
 Iteration 11 RMS(Cart)=  0.00094565 RMS(Int)=  0.11816680
 Iteration 12 RMS(Cart)=  0.00095233 RMS(Int)=  1.35568506
 Iteration 13 RMS(Cart)=  0.00094294 RMS(Int)=  0.12035060
 Iteration 14 RMS(Cart)=  0.00094730 RMS(Int)=  1.35358119
 Iteration 15 RMS(Cart)=  0.00094021 RMS(Int)=  0.12239733
 Iteration 16 RMS(Cart)=  0.00094537 RMS(Int)=  1.35161235
 Iteration 17 RMS(Cart)=  0.00093799 RMS(Int)=  0.12429292
 Iteration 18 RMS(Cart)=  0.00094553 RMS(Int)=  1.34984719
 Iteration 19 RMS(Cart)=  0.00093630 RMS(Int)=  0.12592782
 Iteration 20 RMS(Cart)=  0.00094225 RMS(Int)=  1.34835264
 Iteration 21 RMS(Cart)=  0.00093537 RMS(Int)=  0.12732367
 Iteration 22 RMS(Cart)=  0.00093854 RMS(Int)=  1.34703875
 Iteration 23 RMS(Cart)=  0.00093392 RMS(Int)=  0.12858735
 Iteration 24 RMS(Cart)=  0.00093797 RMS(Int)=  1.34584687
 Iteration 25 RMS(Cart)=  0.00093463 RMS(Int)=  0.12972641
 Iteration 26 RMS(Cart)=  0.00093885 RMS(Int)=  1.34477339
 Iteration 27 RMS(Cart)=  0.00093384 RMS(Int)=  0.13072141
 Iteration 28 RMS(Cart)=  0.00093517 RMS(Int)=  1.34382470
 Iteration 29 RMS(Cart)=  0.00093565 RMS(Int)=  0.13168585
 Iteration 30 RMS(Cart)=  0.00093490 RMS(Int)=  1.34281420
 Iteration 31 RMS(Cart)=  0.00093036 RMS(Int)=  0.13267263
 Iteration 32 RMS(Cart)=  0.00093216 RMS(Int)=  1.34189211
 Iteration 33 RMS(Cart)=  0.00093182 RMS(Int)=  0.13358395
 Iteration 34 RMS(Cart)=  0.00093637 RMS(Int)=  1.34103221
 Iteration 35 RMS(Cart)=  0.00093356 RMS(Int)=  0.13436661
 Iteration 36 RMS(Cart)=  0.00093586 RMS(Int)=  1.34030574
 Iteration 37 RMS(Cart)=  0.00093527 RMS(Int)=  0.13506741
 Iteration 38 RMS(Cart)=  0.00093683 RMS(Int)=  1.33962220
 Iteration 39 RMS(Cart)=  0.00093312 RMS(Int)=  0.13569589
 Iteration 40 RMS(Cart)=  0.00093633 RMS(Int)=  1.33907791
 Iteration 41 RMS(Cart)=  0.00093172 RMS(Int)=  0.13614953
 Iteration 42 RMS(Cart)=  0.00093619 RMS(Int)=  1.33873850
 Iteration 43 RMS(Cart)=  0.00093230 RMS(Int)=  0.13638839
 Iteration 44 RMS(Cart)=  0.00093508 RMS(Int)=  1.33858156
 Iteration 45 RMS(Cart)=  0.00093207 RMS(Int)=  0.13647515
 Iteration 46 RMS(Cart)=  0.00093612 RMS(Int)=  1.33858220
 Iteration 47 RMS(Cart)=  0.00093189 RMS(Int)=  0.13636996
 Iteration 48 RMS(Cart)=  0.00093723 RMS(Int)=  1.33880598
 Iteration 49 RMS(Cart)=  0.00093162 RMS(Int)=  0.13600330
 Iteration 50 RMS(Cart)=  0.00093680 RMS(Int)=  1.33930484
 Iteration 51 RMS(Cart)=  0.00093134 RMS(Int)=  0.13536190
 Iteration 52 RMS(Cart)=  0.00093639 RMS(Int)=  1.34007283
 Iteration 53 RMS(Cart)=  0.00093137 RMS(Int)=  0.13445578
 Iteration 54 RMS(Cart)=  0.00093599 RMS(Int)=  1.34109340
 Iteration 55 RMS(Cart)=  0.00093184 RMS(Int)=  0.13331233
 Iteration 56 RMS(Cart)=  0.00093515 RMS(Int)=  1.34232472
 Iteration 57 RMS(Cart)=  0.00093254 RMS(Int)=  0.13199748
 Iteration 58 RMS(Cart)=  0.00093523 RMS(Int)=  1.34370117
 Iteration 59 RMS(Cart)=  0.00093341 RMS(Int)=  0.13055709
 Iteration 60 RMS(Cart)=  0.00093536 RMS(Int)=  1.34518533
 Iteration 61 RMS(Cart)=  0.00093424 RMS(Int)=  0.12902952
 Iteration 62 RMS(Cart)=  0.00093541 RMS(Int)=  1.34673988
 Iteration 63 RMS(Cart)=  0.00093492 RMS(Int)=  0.12745189
 Iteration 64 RMS(Cart)=  0.00093535 RMS(Int)=  1.34832911
 Iteration 65 RMS(Cart)=  0.00093543 RMS(Int)=  0.12585889
 Iteration 66 RMS(Cart)=  0.00093516 RMS(Int)=  1.34991937
 Iteration 67 RMS(Cart)=  0.00093581 RMS(Int)=  0.12428319
 Iteration 68 RMS(Cart)=  0.00093490 RMS(Int)=  1.35147886
 Iteration 69 RMS(Cart)=  0.00093606 RMS(Int)=  0.12275514
 Iteration 70 RMS(Cart)=  0.00093459 RMS(Int)=  1.35297836
 Iteration 71 RMS(Cart)=  0.00093622 RMS(Int)=  0.12130159
 Iteration 72 RMS(Cart)=  0.00093431 RMS(Int)=  1.35439283
 Iteration 73 RMS(Cart)=  0.00093631 RMS(Int)=  0.11994427
 Iteration 74 RMS(Cart)=  0.00093409 RMS(Int)=  1.35570285
 Iteration 75 RMS(Cart)=  0.00093634 RMS(Int)=  0.11869885
 Iteration 76 RMS(Cart)=  0.00093394 RMS(Int)=  1.35689529
 Iteration 77 RMS(Cart)=  0.00093633 RMS(Int)=  0.11757492
 Iteration 78 RMS(Cart)=  0.00093387 RMS(Int)=  1.35796301
 Iteration 79 RMS(Cart)=  0.00093630 RMS(Int)=  0.11657666
 Iteration 80 RMS(Cart)=  0.00093385 RMS(Int)=  1.35890388
 Iteration 81 RMS(Cart)=  0.00093626 RMS(Int)=  0.11570392
 Iteration 82 RMS(Cart)=  0.00093388 RMS(Int)=  1.35971970
 Iteration 83 RMS(Cart)=  0.00093619 RMS(Int)=  0.11495316
 Iteration 84 RMS(Cart)=  0.00093393 RMS(Int)=  1.36041558
 Iteration 85 RMS(Cart)=  0.00093612 RMS(Int)=  0.11431820
 Iteration 86 RMS(Cart)=  0.00093401 RMS(Int)=  1.36099837
 Iteration 87 RMS(Cart)=  0.00093608 RMS(Int)=  0.11379223
 Iteration 88 RMS(Cart)=  0.00093410 RMS(Int)=  1.36147458
 Iteration 89 RMS(Cart)=  0.00093603 RMS(Int)=  0.11336863
 Iteration 90 RMS(Cart)=  0.00093420 RMS(Int)=  1.36185171
 Iteration 91 RMS(Cart)=  0.00093597 RMS(Int)=  0.11303945
 Iteration 92 RMS(Cart)=  0.00093447 RMS(Int)=  1.36213996
 Iteration 93 RMS(Cart)=  0.00093593 RMS(Int)=  0.11279052
 Iteration 94 RMS(Cart)=  0.00093454 RMS(Int)=  1.36235305
 Iteration 95 RMS(Cart)=  0.00093588 RMS(Int)=  0.11261336
 Iteration 96 RMS(Cart)=  0.00093448 RMS(Int)=  1.36249534
 Iteration 97 RMS(Cart)=  0.00093583 RMS(Int)=  0.11250723
 Iteration 98 RMS(Cart)=  0.00093454 RMS(Int)=  1.36256756
 Iteration 99 RMS(Cart)=  0.00093578 RMS(Int)=  0.11246800
 Iteration100 RMS(Cart)=  0.00093461 RMS(Int)=  1.36257559
 New curvilinear step not converged.
 ITry= 6 IFail=1 DXMaxC= 1.29D-02 DCOld= 1.00D+10 DXMaxT= 6.18D-01 DXLimC= 3.00D+00 Rises=F
 Iteration  1 RMS(Cart)=  0.00124493 RMS(Int)=  1.39429747
 Iteration  2 RMS(Cart)=  0.00082823 RMS(Int)=  1.36579637
 Iteration  3 RMS(Cart)=  0.00076402 RMS(Int)=  0.11284937
 Iteration  4 RMS(Cart)=  0.00079958 RMS(Int)=  1.35475819
 Iteration  5 RMS(Cart)=  0.00075281 RMS(Int)=  0.12351550
 Iteration  6 RMS(Cart)=  0.00078609 RMS(Int)=  1.34554207
 Iteration  7 RMS(Cart)=  0.00074389 RMS(Int)=  0.13237922
 Iteration  8 RMS(Cart)=  0.00077458 RMS(Int)=  1.33780176
 Iteration  9 RMS(Cart)=  0.00073707 RMS(Int)=  0.13979090
 Iteration 10 RMS(Cart)=  0.00076460 RMS(Int)=  1.33127272
 Iteration 11 RMS(Cart)=  0.00073269 RMS(Int)=  0.14602144
 Iteration 12 RMS(Cart)=  0.00075310 RMS(Int)=  1.32564942
 Iteration 13 RMS(Cart)=  0.00073877 RMS(Int)=  0.15145851
 Iteration 14 RMS(Cart)=  0.00076388 RMS(Int)=  1.32076415
 Iteration 15 RMS(Cart)=  0.00074103 RMS(Int)=  0.15605004
 Iteration 16 RMS(Cart)=  0.00076018 RMS(Int)=  1.31663704
 Iteration 17 RMS(Cart)=  0.00073997 RMS(Int)=  0.15994620
 Iteration 18 RMS(Cart)=  0.00075717 RMS(Int)=  1.31312952
 Iteration 19 RMS(Cart)=  0.00073878 RMS(Int)=  0.16323533
 Iteration 20 RMS(Cart)=  0.00075440 RMS(Int)=  1.31018290
 Iteration 21 RMS(Cart)=  0.00073864 RMS(Int)=  0.16598348
 Iteration 22 RMS(Cart)=  0.00075239 RMS(Int)=  1.30771221
 Iteration 23 RMS(Cart)=  0.00073863 RMS(Int)=  0.16827783
 Iteration 24 RMS(Cart)=  0.00075031 RMS(Int)=  1.30564017
 Iteration 25 RMS(Cart)=  0.00073871 RMS(Int)=  0.17020479
 Iteration 26 RMS(Cart)=  0.00074814 RMS(Int)=  1.30387619
 Iteration 27 RMS(Cart)=  0.00073851 RMS(Int)=  0.17185992
 Iteration 28 RMS(Cart)=  0.00074798 RMS(Int)=  1.30237301
 Iteration 29 RMS(Cart)=  0.00073836 RMS(Int)=  0.17323326
 Iteration 30 RMS(Cart)=  0.00074533 RMS(Int)=  1.30112190
 Iteration 31 RMS(Cart)=  0.00073752 RMS(Int)=  0.17440092
 Iteration 32 RMS(Cart)=  0.00074595 RMS(Int)=  1.30008923
 Iteration 33 RMS(Cart)=  0.00073876 RMS(Int)=  0.17531953
 Iteration 34 RMS(Cart)=  0.00074391 RMS(Int)=  1.29925074
 Iteration 35 RMS(Cart)=  0.00073896 RMS(Int)=  0.17611354
 Iteration 36 RMS(Cart)=  0.00073968 RMS(Int)=  1.29844055
 Iteration 37 RMS(Cart)=  0.00073799 RMS(Int)=  0.17697392
 Iteration 38 RMS(Cart)=  0.00074274 RMS(Int)=  1.29759616
 Iteration 39 RMS(Cart)=  0.00073852 RMS(Int)=  0.17776285
 Iteration 40 RMS(Cart)=  0.00074344 RMS(Int)=  1.29688149
 Iteration 41 RMS(Cart)=  0.00073860 RMS(Int)=  0.17839693
 Iteration 42 RMS(Cart)=  0.00074273 RMS(Int)=  1.29632534
 Iteration 43 RMS(Cart)=  0.00073889 RMS(Int)=  0.17889249
 Iteration 44 RMS(Cart)=  0.00074232 RMS(Int)=  1.29588821
 Iteration 45 RMS(Cart)=  0.00073887 RMS(Int)=  0.17927509
 Iteration 46 RMS(Cart)=  0.00074019 RMS(Int)=  1.29553386
 Iteration 47 RMS(Cart)=  0.00073791 RMS(Int)=  0.17961509
 Iteration 48 RMS(Cart)=  0.00073552 RMS(Int)=  1.29515103
 Iteration 49 RMS(Cart)=  0.00073443 RMS(Int)=  0.18005058
 Iteration 50 RMS(Cart)=  0.00072661 RMS(Int)=  1.29456695
 Iteration 51 RMS(Cart)=  0.00072874 RMS(Int)=  0.18081328
 Iteration 52 RMS(Cart)=  0.00074164 RMS(Int)=  1.29397148
 Iteration 53 RMS(Cart)=  0.00073932 RMS(Int)=  0.18119974
 Iteration 54 RMS(Cart)=  0.00074147 RMS(Int)=  1.29361705
 Iteration 55 RMS(Cart)=  0.00073955 RMS(Int)=  0.18152766
 Iteration 56 RMS(Cart)=  0.00074130 RMS(Int)=  1.29331249
 Iteration 57 RMS(Cart)=  0.00073964 RMS(Int)=  0.18181159
 Iteration 58 RMS(Cart)=  0.00074137 RMS(Int)=  1.29305210
 Iteration 59 RMS(Cart)=  0.00073971 RMS(Int)=  0.18204718
 Iteration 60 RMS(Cart)=  0.00074094 RMS(Int)=  1.29283565
 Iteration 61 RMS(Cart)=  0.00073936 RMS(Int)=  0.18224474
 Iteration 62 RMS(Cart)=  0.00074080 RMS(Int)=  1.29266254
 Iteration 63 RMS(Cart)=  0.00073946 RMS(Int)=  0.18239618
 Iteration 64 RMS(Cart)=  0.00074068 RMS(Int)=  1.29253117
 Iteration 65 RMS(Cart)=  0.00073954 RMS(Int)=  0.18250963
 Iteration 66 RMS(Cart)=  0.00074058 RMS(Int)=  1.29243419
 Iteration 67 RMS(Cart)=  0.00073962 RMS(Int)=  0.18259202
 Iteration 68 RMS(Cart)=  0.00074049 RMS(Int)=  1.29236498
 Iteration 69 RMS(Cart)=  0.00073969 RMS(Int)=  0.18264962
 Iteration 70 RMS(Cart)=  0.00074042 RMS(Int)=  1.29231771
 Iteration 71 RMS(Cart)=  0.00073975 RMS(Int)=  0.18268784
 Iteration 72 RMS(Cart)=  0.00074036 RMS(Int)=  1.29228743
 Iteration 73 RMS(Cart)=  0.00073981 RMS(Int)=  0.18271122
 Iteration 74 RMS(Cart)=  0.00074031 RMS(Int)=  1.29227003
 Iteration 75 RMS(Cart)=  0.00073985 RMS(Int)=  0.18272349
 Iteration 76 RMS(Cart)=  0.00074027 RMS(Int)=  1.29226214
 Iteration 77 RMS(Cart)=  0.00073989 RMS(Int)=  0.18272768
 Iteration 78 RMS(Cart)=  0.00074023 RMS(Int)=  1.29226104
 Iteration 79 RMS(Cart)=  0.00073992 RMS(Int)=  0.18272622
 Iteration 80 RMS(Cart)=  0.00074020 RMS(Int)=  1.29226457
 Iteration 81 RMS(Cart)=  0.00073995 RMS(Int)=  0.18272104
 Iteration 82 RMS(Cart)=  0.00074018 RMS(Int)=  1.29227102
 Iteration 83 RMS(Cart)=  0.00073997 RMS(Int)=  0.18271366
 Iteration 84 RMS(Cart)=  0.00074016 RMS(Int)=  1.29227905
 Iteration 85 RMS(Cart)=  0.00073999 RMS(Int)=  0.18270524
 Iteration 86 RMS(Cart)=  0.00074014 RMS(Int)=  1.29228762
 Iteration 87 RMS(Cart)=  0.00074001 RMS(Int)=  0.18269670
 Iteration 88 RMS(Cart)=  0.00074013 RMS(Int)=  1.29229596
 Iteration 89 RMS(Cart)=  0.00074002 RMS(Int)=  0.18268871
 Iteration 90 RMS(Cart)=  0.00074011 RMS(Int)=  1.29230348
 Iteration 91 RMS(Cart)=  0.00074003 RMS(Int)=  0.18268177
 Iteration 92 RMS(Cart)=  0.00074011 RMS(Int)=  1.29230976
 Iteration 93 RMS(Cart)=  0.00074004 RMS(Int)=  0.18267624
 Iteration 94 RMS(Cart)=  0.00074010 RMS(Int)=  1.29231449
 Iteration 95 RMS(Cart)=  0.00074005 RMS(Int)=  0.18267235
 Iteration 96 RMS(Cart)=  0.00074009 RMS(Int)=  1.29231749
 Iteration 97 RMS(Cart)=  0.00074005 RMS(Int)=  0.18267027
 Iteration 98 RMS(Cart)=  0.00074009 RMS(Int)=  1.29231863
 Iteration 99 RMS(Cart)=  0.00074006 RMS(Int)=  0.18267008
 Iteration100 RMS(Cart)=  0.00074008 RMS(Int)=  1.29231787
 New curvilinear step not converged.
 ITry= 7 IFail=1 DXMaxC= 1.26D-02 DCOld= 1.00D+10 DXMaxT= 6.18D-01 DXLimC= 3.00D+00 Rises=F
 Iteration  1 RMS(Cart)=  0.00096167 RMS(Int)=  1.39197656
 Iteration  2 RMS(Cart)=  0.00062712 RMS(Int)=  1.35200492
 Iteration  3 RMS(Cart)=  0.00057651 RMS(Int)=  0.12762423
 Iteration  4 RMS(Cart)=  0.00063024 RMS(Int)=  1.33299480
 Iteration  5 RMS(Cart)=  0.00056851 RMS(Int)=  0.14616883
 Iteration  6 RMS(Cart)=  0.00061512 RMS(Int)=  1.31794618
 Iteration  7 RMS(Cart)=  0.00055965 RMS(Int)=  0.16083004
 Iteration  8 RMS(Cart)=  0.00060315 RMS(Int)=  1.30564425
 Iteration  9 RMS(Cart)=  0.00055332 RMS(Int)=  0.17276840
 Iteration 10 RMS(Cart)=  0.00059329 RMS(Int)=  1.29540511
 Iteration 11 RMS(Cart)=  0.00054825 RMS(Int)=  0.18266432
 Iteration 12 RMS(Cart)=  0.00058524 RMS(Int)=  1.28682090
 Iteration 13 RMS(Cart)=  0.00054504 RMS(Int)=  0.19091959
 Iteration 14 RMS(Cart)=  0.00057882 RMS(Int)=  1.27959238
 Iteration 15 RMS(Cart)=  0.00054276 RMS(Int)=  0.19783266
 Iteration 16 RMS(Cart)=  0.00057381 RMS(Int)=  1.27352652
 Iteration 17 RMS(Cart)=  0.00054119 RMS(Int)=  0.20358412
 Iteration 18 RMS(Cart)=  0.00057005 RMS(Int)=  1.26851800
 Iteration 19 RMS(Cart)=  0.00054106 RMS(Int)=  0.20827442
 Iteration 20 RMS(Cart)=  0.00056734 RMS(Int)=  1.26445334
 Iteration 21 RMS(Cart)=  0.00054174 RMS(Int)=  0.21203095
 Iteration 22 RMS(Cart)=  0.00056542 RMS(Int)=  1.26121723
 Iteration 23 RMS(Cart)=  0.00054228 RMS(Int)=  0.21496285
 Iteration 24 RMS(Cart)=  0.00056379 RMS(Int)=  1.25875135
 Iteration 25 RMS(Cart)=  0.00054260 RMS(Int)=  0.21711907
 Iteration 26 RMS(Cart)=  0.00056382 RMS(Int)=  1.25705127
 Iteration 27 RMS(Cart)=  0.00054893 RMS(Int)=  0.21850752
 Iteration 28 RMS(Cart)=  0.00055918 RMS(Int)=  1.25584099
 Iteration 29 RMS(Cart)=  0.00054874 RMS(Int)=  0.21965641
 Iteration 30 RMS(Cart)=  0.00055809 RMS(Int)=  1.25476942
 Iteration 31 RMS(Cart)=  0.00054855 RMS(Int)=  0.22065798
 Iteration 32 RMS(Cart)=  0.00055454 RMS(Int)=  1.25379098
 Iteration 33 RMS(Cart)=  0.00054000 RMS(Int)=  0.22150091
 Iteration 34 RMS(Cart)=  0.00055192 RMS(Int)=  1.25325636
 Iteration 35 RMS(Cart)=  0.00054942 RMS(Int)=  0.22198063
 Iteration 36 RMS(Cart)=  0.00055327 RMS(Int)=  1.25267114
 Iteration 37 RMS(Cart)=  0.00054909 RMS(Int)=  0.22261271
 Iteration 38 RMS(Cart)=  0.00054216 RMS(Int)=  1.25172975
 Iteration 39 RMS(Cart)=  0.00054647 RMS(Int)=  0.22396774
 Iteration 40 RMS(Cart)=  0.00054971 RMS(Int)=  1.25014167
 Iteration 41 RMS(Cart)=  0.00054885 RMS(Int)=  0.22562787
 Iteration 42 RMS(Cart)=  0.00055266 RMS(Int)=  1.24841984
 Iteration 43 RMS(Cart)=  0.00054890 RMS(Int)=  0.22733530
 Iteration 44 RMS(Cart)=  0.00055131 RMS(Int)=  1.24670289
 Iteration 45 RMS(Cart)=  0.00054448 RMS(Int)=  0.22899527
 Iteration 46 RMS(Cart)=  0.00055231 RMS(Int)=  1.24527371
 Iteration 47 RMS(Cart)=  0.00054636 RMS(Int)=  0.23025208
 Iteration 48 RMS(Cart)=  0.00055416 RMS(Int)=  1.24423089
 Iteration 49 RMS(Cart)=  0.00054816 RMS(Int)=  0.23110642
 Iteration 50 RMS(Cart)=  0.00055177 RMS(Int)=  1.24349988
 Iteration 51 RMS(Cart)=  0.00054886 RMS(Int)=  0.23178481
 Iteration 52 RMS(Cart)=  0.00054962 RMS(Int)=  1.24281761
 Iteration 53 RMS(Cart)=  0.00054732 RMS(Int)=  0.23247755
 Iteration 54 RMS(Cart)=  0.00053758 RMS(Int)=  1.24185636
 Iteration 55 RMS(Cart)=  0.00054600 RMS(Int)=  0.23386422
 Iteration 56 RMS(Cart)=  0.00054922 RMS(Int)=  1.24028652
 Iteration 57 RMS(Cart)=  0.00054901 RMS(Int)=  0.23541480
 Iteration 58 RMS(Cart)=  0.00055728 RMS(Int)=  1.23889414
 Iteration 59 RMS(Cart)=  0.00054883 RMS(Int)=  0.23652281
 Iteration 60 RMS(Cart)=  0.00056034 RMS(Int)=  1.23820045
 Iteration 61 RMS(Cart)=  0.00055185 RMS(Int)=  0.23684019
 Iteration 62 RMS(Cart)=  0.00055975 RMS(Int)=  1.23819828
 Iteration 63 RMS(Cart)=  0.00055307 RMS(Int)=  0.23656074
 Iteration 64 RMS(Cart)=  0.00055190 RMS(Int)=  1.23856151
 Iteration 65 RMS(Cart)=  0.00055181 RMS(Int)=  0.23625478
 Iteration 66 RMS(Cart)=  0.00054715 RMS(Int)=  1.23873983
 Iteration 67 RMS(Cart)=  0.00055062 RMS(Int)=  0.23628327
 Iteration 68 RMS(Cart)=  0.00054594 RMS(Int)=  1.23850309
 Iteration 69 RMS(Cart)=  0.00055090 RMS(Int)=  0.23674765
 Iteration 70 RMS(Cart)=  0.00054476 RMS(Int)=  1.23775622
 Iteration 71 RMS(Cart)=  0.00055323 RMS(Int)=  0.23780713
 Iteration 72 RMS(Cart)=  0.00054200 RMS(Int)=  1.23618122
 Iteration 73 RMS(Cart)=  0.00055900 RMS(Int)=  0.23991473
 Iteration 74 RMS(Cart)=  0.00052633 RMS(Int)=  1.23253232
 Iteration 75 RMS(Cart)=  0.00057187 RMS(Int)=  0.24475591
 Iteration 76 RMS(Cart)=  0.00056936 RMS(Int)=  1.22631658
 Iteration 77 RMS(Cart)=  0.00053632 RMS(Int)=  0.25062934
 Iteration 78 RMS(Cart)=  0.00047376 RMS(Int)=  1.21773468
 Iteration 79 RMS(Cart)=  0.00054066 RMS(Int)=  0.26087069
 Iteration 80 RMS(Cart)=  0.00055788 RMS(Int)=  1.20639302
 Iteration 81 RMS(Cart)=  0.00051760 RMS(Int)=  0.27164283
 Iteration 82 RMS(Cart)=  0.00062254 RMS(Int)=  1.20173281
 Iteration 83 RMS(Cart)=  0.00052432 RMS(Int)=  0.27260983
 Iteration 84 RMS(Cart)=  0.00055011 RMS(Int)=  1.20337698
 Iteration 85 RMS(Cart)=  0.00055323 RMS(Int)=  0.27045081
 Iteration 86 RMS(Cart)=  0.00055038 RMS(Int)=  1.20541307
 Iteration 87 RMS(Cart)=  0.00055305 RMS(Int)=  0.26857216
 Iteration 88 RMS(Cart)=  0.00055060 RMS(Int)=  1.20718396
 Iteration 89 RMS(Cart)=  0.00055290 RMS(Int)=  0.26693421
 Iteration 90 RMS(Cart)=  0.00055078 RMS(Int)=  1.20872713
 Iteration 91 RMS(Cart)=  0.00055277 RMS(Int)=  0.26550410
 Iteration 92 RMS(Cart)=  0.00055093 RMS(Int)=  1.21007371
 Iteration 93 RMS(Cart)=  0.00055266 RMS(Int)=  0.26425437
 Iteration 94 RMS(Cart)=  0.00055105 RMS(Int)=  1.21124964
 Iteration 95 RMS(Cart)=  0.00055256 RMS(Int)=  0.26316188
 Iteration 96 RMS(Cart)=  0.00055116 RMS(Int)=  1.21227682
 Iteration 97 RMS(Cart)=  0.00055248 RMS(Int)=  0.26220693
 Iteration 98 RMS(Cart)=  0.00055125 RMS(Int)=  1.21317392
 Iteration 99 RMS(Cart)=  0.00055241 RMS(Int)=  0.26137254
 Iteration100 RMS(Cart)=  0.00055133 RMS(Int)=  1.21395708
 New curvilinear step not converged.
 ITry= 8 IFail=1 DXMaxC= 1.23D-02 DCOld= 1.00D+10 DXMaxT= 6.18D-01 DXLimC= 3.00D+00 Rises=F
 Iteration  1 RMS(Cart)=  0.00050553 RMS(Int)=  1.37806200
 Iteration  2 RMS(Cart)=  0.00029490 RMS(Int)=  0.09876367
 Iteration  3 RMS(Cart)=  0.00027190 RMS(Int)=  1.36033459
 Iteration  4 RMS(Cart)=  0.00023265 RMS(Int)=  1.35183389
 Iteration  5 RMS(Cart)=  0.00040654 RMS(Int)=  1.33686195
 Iteration  6 RMS(Cart)=  0.00023025 RMS(Int)=  1.32829613
 Iteration  7 RMS(Cart)=  0.00035579 RMS(Int)=  1.32022602
 Iteration  8 RMS(Cart)=  0.00073237 RMS(Int)=  1.29620902
 Iteration  9 RMS(Cart)=  0.00452978 RMS(Int)=  1.22211801
 Iteration 10 RMS(Cart)=  0.00052914 RMS(Int)=  1.21404260
 Iteration 11 RMS(Cart)=  0.00043615 RMS(Int)=  1.20526644
 Iteration 12 RMS(Cart)=  0.00015069 RMS(Int)=  1.20301903
 New curvilinear step failed, DQL= 7.65D+00 SP=-9.94D-01.
 ITry= 9 IFail=1 DXMaxC= 1.34D-02 DCOld= 1.00D+10 DXMaxT= 6.18D-01 DXLimC= 3.00D+00 Rises=F
 Iteration  1 RMS(Cart)=  0.00045567 RMS(Int)=  0.07868190
 Iteration  2 RMS(Cart)=  0.00021840 RMS(Int)=  0.07316039
 Iteration  3 RMS(Cart)=  0.00018446 RMS(Int)=  0.06811799
 Iteration  4 RMS(Cart)=  0.00017796 RMS(Int)=  0.06359095
 Iteration  5 RMS(Cart)=  0.00015939 RMS(Int)=  0.05913662
 Iteration  6 RMS(Cart)=  0.00002753 RMS(Int)=  0.05413030
 Iteration  7 RMS(Cart)=  0.00002781 RMS(Int)=  0.05123853
 Iteration  8 RMS(Cart)=  0.00017598 RMS(Int)=  0.04780263
 Iteration  9 RMS(Cart)=  0.00008875 RMS(Int)=  0.04533469
 Iteration 10 RMS(Cart)=  0.00011278 RMS(Int)=  0.04278691
 Iteration 11 RMS(Cart)=  0.00006859 RMS(Int)=  0.04074595
 Iteration 12 RMS(Cart)=  0.00005749 RMS(Int)=  0.03889154
 Iteration 13 RMS(Cart)=  0.00004160 RMS(Int)=  0.03728650
 Iteration 14 RMS(Cart)=  0.00003335 RMS(Int)=  0.03585868
 Iteration 15 RMS(Cart)=  0.00002773 RMS(Int)=  0.03457883
 Iteration 16 RMS(Cart)=  0.00002447 RMS(Int)=  0.03341678
 Iteration 17 RMS(Cart)=  0.00002241 RMS(Int)=  0.03235790
 Iteration 18 RMS(Cart)=  0.00002108 RMS(Int)=  0.03139896
 Iteration 19 RMS(Cart)=  0.00002259 RMS(Int)=  0.03047038
 Iteration 20 RMS(Cart)=  0.00002107 RMS(Int)=  0.02959245
 Iteration 21 RMS(Cart)=  0.00002459 RMS(Int)=  0.02866524
 Iteration 22 RMS(Cart)=  0.00001000 RMS(Int)=  0.02810348
 New curvilinear step failed:  FormB failed.
 ITry=10 IFail=2 DXMaxC= 4.23D-03 DCOld= 1.00D+10 DXMaxT= 6.18D-01 DXLimC= 3.00D+00 Rises=F
 Variable       Old X    -DE/DX   Delta X   Delta X   Delta X     New X
                                 (Linear)    (Quad)   (Total)
    R1        2.77987  -0.00011  -0.00015  -0.00003  -0.00012   2.77975
    R2        2.78001  -0.00002  -0.00006  -0.00002  -0.00009   2.77992
    R3        2.78014  -0.00006   0.00009  -0.00034   0.00016   2.78030
    R4        3.25234  -0.00127   0.00099  -0.00938  -0.00024   3.25211
    R5        3.03512  -0.00041   0.00274  -0.00424   0.00091   3.03603
    R6        2.94329  -0.00069  -0.00027  -0.00076  -0.00016   2.94313
    R7        4.24338  -0.00183  -0.01471  -0.00442  -0.00477   4.23861
    R8        4.24064  -0.00162  -0.01581  -0.00395  -0.00526   4.23538
    A1        1.95314   0.00020   0.00097  -0.00088   0.00048   1.95361
    A2        1.95303   0.00022   0.00076  -0.00055   0.00019   1.95321
    A3        1.86961  -0.00069  -0.00288   0.00265  -0.00079   1.86883
    A4        1.95298   0.00010  -0.00087   0.00077  -0.00030   1.95268
    A5        1.86459   0.00003   0.00107  -0.00119   0.00040   1.86499
    A6        1.86388   0.00008   0.00086  -0.00073  -0.00002   1.86386
    A7        3.14138   0.00052  -0.00014   0.04518   0.00021   3.14159
    A8        2.09866  -0.00052  -0.00362   0.00101  -0.00097   2.09769
    A9        1.77874   0.00005  -0.00180   0.00050  -0.00077   1.77797
   A10        1.78054  -0.00018  -0.00062  -0.00105  -0.00001   1.78052
   A11        1.99041   0.00029   0.00263  -0.00041   0.00045   1.99086
   A12        1.99087   0.00030   0.00277  -0.00086   0.00121   1.99208
   A13        1.78377   0.00010   0.00063   0.00090   0.00005   1.78382
    D1       -2.61746  -0.00001   0.19724  -0.03751   0.13606  -2.48140
    D2        1.57009   0.00010   0.19706  -0.03726   0.13570   1.70580
    D3       -0.52234  -0.00007   0.19707  -0.03715   0.13585  -0.38649
    D4        2.58875   0.00008  -0.19614   0.03808  -0.13525   2.45350
    D5        0.36817   0.00001  -0.19552   0.03748  -0.13448   0.23370
    D6       -1.47163  -0.00006  -0.19551   0.03668  -0.13431  -1.60594
         Item               Value     Threshold  Converged?
 Maximum Force            0.001826     0.000015     NO 
 RMS     Force            0.000596     0.000010     NO 
 Maximum Displacement     0.004226     0.000060     NO 
 RMS     Displacement     0.001739     0.000040     NO 
 Predicted change in Energy=-1.604882D-05
 GradGradGradGradGradGradGradGradGradGradGradGradGradGradGradGradGradGrad

                          Input orientation:                          
 ---------------------------------------------------------------------
 Center     Atomic      Atomic             Coordinates (Angstroms)
 Number     Number       Type             X           Y           Z
 ---------------------------------------------------------------------
      1         14           0       -1.628738   -0.533257   -1.340279
      2          1           0       -0.810478   -1.517594   -0.615494
      3          1           0       -1.072605   -0.226878   -2.667264
      4          1           0       -3.039607   -0.943123   -1.418364
      5          8           0       -1.584952    0.927484   -0.431461
      6         15           0       -1.544075    2.291172    0.416975
      7          8           0       -0.760871    2.353723    1.761699
      8         17           0       -3.724323    2.783399    0.604497
      9         17           0       -0.853706    3.773715   -1.115584
 ---------------------------------------------------------------------
                    Distance matrix (angstroms):
                    1          2          3          4          5
     1  Si   0.000000
     2  H    1.470980   0.000000
     3  H    1.471068   2.438118   0.000000
     4  H    1.471271   2.437957   2.437592   0.000000
     5  O    1.720940   2.571398   2.567853   2.566939   0.000000
     6  P    3.327538   4.013833   4.009413   4.008210   1.606598
     7  O    4.325519   4.543193   5.135406   5.116115   2.742848
     8  Cl   4.378795   5.336423   5.176659   4.295087   3.015715
     9  Cl   4.381915   5.315065   4.296555   5.207534   3.017247
                    6          7          8          9
     6  P    0.000000
     7  O    1.557435   0.000000
     8  Cl   2.242974   3.210263   0.000000
     9  Cl   2.241268   3.209945   3.489964   0.000000
 Symmetry turned off by external request.
 Stoichiometry    Cl2H3O2PSi
 Framework group  C1[X(Cl2H3O2PSi)]
 Deg. of freedom    21
 Full point group                 C1      NOp   1
 Rotational constants (GHZ):           1.5539988           1.0133353           0.8347587
 Standard basis: 6-311G(3d2f,3p2d) (5D, 7F)
   128 basis functions,   242 primitive gaussians,   128 cartesian basis functions
    41 alpha electrons       41 beta electrons
       nuclear repulsion energy       528.6878221513 Hartrees.



 Warning!  P  atom    6 may be hypervalent but has no d functions.



 NAtoms=    9 NActive=    9 NUniq=    9 SFac= 1.00D+00 NAtFMM=   60 NAOKFM=F Big=F
 Integral buffers will be    131072 words long.
 Raffenetti 2 integral format.
 Two-electron integral symmetry is turned off.
 One-electron integrals computed using PRISM.
 NBasis=   128 RedAO= T EigKep=  1.25D-02  NBF=   128
 NBsUse=   128 1.00D-06 EigRej= -1.00D+00 NBFU=   128
 Initial guess from the checkpoint file:  "H3SiOPOCl2_B3LYP_6-311g.chk"
 B after Tr=     0.001175    0.000351   -0.001589
         Rot=    1.000000   -0.000052   -0.000170   -0.000125 Ang=  -0.02 deg.
 Keep R1 ints in memory in canonical form, NReq=56933861.
 Requested convergence on RMS density matrix=1.00D-08 within 128 cycles.
 Requested convergence on MAX density matrix=1.00D-06.
 Requested convergence on             energy=1.00D-06.
 No special actions if energy rises.
 SCF Done:  E(RB3LYP) =  -1703.54708153     A.U. after    9 cycles
            NFock=  9  Conv=0.59D-08     -V/T= 2.0022
 Calling FoFJK, ICntrl=      2127 FMM=F ISym2X=0 I1Cent= 0 IOpClX= 0 NMat=1 NMatS=1 NMatT=0.
 -------------------------------------------------------------------
 Center     Atomic                   Forces (Hartrees/Bohr)
 Number     Number              X              Y              Z
 -------------------------------------------------------------------
      1       14          -0.000123449    0.000771798    0.000553091
      2        1           0.000021193    0.000230913    0.000126920
      3        1           0.000023708    0.000025402    0.000017773
      4        1           0.000073929    0.000029111    0.000002651
      5        8           0.000094788   -0.000466717   -0.000463096
      6       15          -0.000888645    0.000668083   -0.000257554
      7        8          -0.000186958   -0.000200833   -0.000580631
      8       17           0.001297369   -0.000276767   -0.000111452
      9       17          -0.000311935   -0.000780989    0.000712298
 -------------------------------------------------------------------
 Cartesian Forces:  Max     0.001297369 RMS     0.000476771

 GradGradGradGradGradGradGradGradGradGradGradGradGradGradGradGradGradGrad
 Berny optimization.
 Using GEDIIS/GDIIS optimizer.
 Bend failed for angle     1 -     5 -     6
 Tors failed for dihedral     2 -     1 -     5 -     6
 Tors failed for dihedral     3 -     1 -     5 -     6
 Tors failed for dihedral     4 -     1 -     5 -     6
 Tors failed for dihedral     1 -     5 -     6 -     7
 Tors failed for dihedral     1 -     5 -     6 -     8
 Tors failed for dihedral     1 -     5 -     6 -     9
 FormBX had a problem.
 Error termination via Lnk1e in /opt/gaussian/g16.a03/g16/l103.exe at Tue Dec 23 16:35:19 2025.
 Job cpu time:       0 days  0 hours  9 minutes 55.6 seconds.
 Elapsed time:       0 days  0 hours  0 minutes 37.4 seconds.
 File lengths (MBytes):  RWF=     10 Int=      0 D2E=      0 Chk=      3 Scr=      1
