%NProcLinda=1
%nprocshared=24
%mem=50GB
%chk=H3SiOPOCl2_B3LYP_6-311g.chk
# B3LYP/6-311g(3d2f,3p2d) SCF=Tight opt=(tight,maxcycles=300)
freq=(raman,hpmodes) nosymm int=finegrid density
pop=(full,bonding) iop(6/80=1)

H3SiOPOCl2 B3LYP_6-311g


0 1
 Si                -1.61386169   -0.32598579   -1.20025020
 H                 -1.12387850   -1.71192103   -1.20025020
 H                 -1.12385320    0.36697247   -2.40050039
 H                 -3.08386169   -0.32596768   -1.20025020
 O                 -1.00385113    0.53667654    0.29393882
 P                 -1.57089311    2.14992256    0.29313360
 O                 -1.00085721    2.95516742    1.68982246
 Cl                -3.61088859    2.15366296    0.29102647
 Cl                -0.88741128    3.11011259   -1.37194529





